\ LP format - for model browsing. Use MPS format to capture full model detail.
\ Signature: 0x81cce0a29e89cb0c
Maximize
  264 C0 + 675 C1 + 352 C2 + 683 C3 + 408 C4 + 270 C5 + 437 C6 + 174 C7
   + 325 C8 + 378 C9 + 578 C10 + 492 C11 + 725 C12 + 273 C13 + 467 C14
   + 480 C15 + 229 C16 + 261 C17 + 183 C18 + 593 C19 + 545 C20 + 524 C21
   + 340 C22 + 668 C23 + 435 C24 + 588 C25 + 510 C26 + 547 C27 + 637 C28
   + 229 C29 + 444 C30 + 280 C31 + 469 C32 + 417 C33 + 103 C34 + 230 C35
   + 212 C36 + 328 C37 + 445 C38 + 651 C39 + 359 C40 + 209 C41 + 209 C42
   + 515 C43 + 406 C44 + 423 C45 + 213 C46 + 293 C47 + 476 C48 + 294 C49
   + 411 C50 + 193 C51 + 350 C52 + 679 C53 + 145 C54 + 114 C55 + 694 C56
   + 602 C57 + 466 C58 + 348 C59 + 461 C60 + 281 C61 + 407 C62 + 291 C63
   + 282 C64 + 535 C65 + 499 C66 + 244 C67 + 530 C68 + 542 C69 + 387 C70
   + 576 C71 + 452 C72 + 347 C73 + 373 C74 + 304 C75 + 345 C76 + 415 C77
   + 604 C78 + 456 C79 + 664 C80 + 724 C81 + 128 C82 + 519 C83 + 360 C84
   + 261 C85 + 282 C86 + 376 C87 + 121 C88 + 390 C89 + 589 C90 + 545 C91
   + 538 C92 + 491 C93 + 339 C94 + 301 C95 + 409 C96 + 430 C97 + 348 C98
   + 216 C99
Subject To
 R0: 414 C0 + 300 C1 + 822 C2 + 799 C3 + 514 C4 + 327 C5 + 733 C6 + 801 C7
   + 738 C8 + 502 C9 + 191 C10 + 635 C11 + 139 C12 + 991 C13 + 57 C14
   + 58 C15 + 473 C16 + 785 C17 + 929 C18 + 166 C19 + 110 C20 + 635 C21
   + 31 C22 + 323 C23 + 722 C24 + 866 C25 + 258 C26 + 650 C27 + 95 C28
   + 788 C29 + 708 C30 + 425 C31 + 394 C32 + 847 C33 + 741 C34 + 375 C35
   + 160 C36 + 640 C37 + 224 C38 + 669 C39 + 454 C40 + 237 C41 + 736 C42
   + 757 C43 + 14 C44 + 546 C45 + 952 C46 + 28 C47 + 939 C48 + 868 C49
   + 533 C50 + 96 C51 + 923 C52 + 358 C53 + 84 C54 + 400 C55 + 928 C56
   + 719 C57 + 779 C58 + 701 C59 + 229 C60 + 280 C61 + 504 C62 + 835 C63
   + 288 C64 + 878 C65 + 187 C66 + 160 C67 + 68 C68 + 700 C69 + 877 C70
   + 217 C71 + 155 C72 + 710 C73 + 918 C74 + 343 C75 + 469 C76 + 389 C77
   + 559 C78 + 989 C79 + 860 C80 + 389 C81 + 412 C82 + 14 C83 + 419 C84
   + 144 C85 + 263 C86 + 408 C87 + 146 C88 + 577 C89 + 420 C90 + 107 C91
   + 459 C92 + 24 C93 + 8 C94 + 552 C95 + 905 C96 + 601 C97 + 720 C98
   + 73 C99 <= 12955
 R1: 790 C0 + 874 C1 + 436 C2 + 445 C3 + 201 C4 + 864 C5 + 40 C6 + 343 C7
   + 593 C8 + 529 C9 + 726 C10 + 875 C11 + 884 C12 + 839 C13 + 29 C14
   + 713 C15 + 261 C16 + 217 C17 + 23 C18 + 261 C19 + 658 C20 + 353 C21
   + 78 C22 + 772 C23 + 833 C24 + 805 C25 + 164 C26 + 806 C27 + 662 C28
   + 623 C29 + 172 C30 + 12 C31 + 638 C32 + 779 C33 + 836 C34 + 480 C35
   + 720 C36 + 579 C37 + 591 C38 + 919 C39 + 928 C40 + 525 C41 + 28 C42
   + 752 C43 + 427 C44 + 175 C45 + 193 C46 + 425 C47 + 338 C48 + 120 C49
   + 621 C50 + 997 C51 + 975 C52 + 126 C53 + 760 C54 + 648 C55 + 160 C56
   + 959 C57 + 411 C58 + 190 C59 + 46 C60 + 720 C61 + 95 C62 + 847 C63
   + 76 C64 + 350 C65 + 350 C66 + 44 C67 + 680 C68 + 368 C69 + 635 C70
   + 973 C71 + 708 C72 + 953 C73 + 770 C74 + 506 C75 + 50 C76 + 991 C77
   + 896 C78 + 894 C79 + 456 C80 + 646 C81 + 273 C82 + 554 C83 + 521 C84
   + 609 C85 + 891 C86 + 591 C87 + 863 C88 + 68 C89 + 222 C90 + 657 C91
   + 385 C92 + 69 C93 + 384 C94 + 427 C95 + 489 C96 + 308 C97 + 441 C98
   + 679 C99 <= 14264
 R2: 658 C0 + 447 C1 + 883 C2 + 619 C3 + 852 C4 + 711 C5 + 56 C6 + 386 C7
   + 543 C8 + 815 C9 + 705 C10 + 839 C11 + 881 C12 + 441 C13 + 226 C14
   + 386 C15 + 488 C16 + 985 C17 + 471 C18 + 968 C19 + 358 C20 + 807 C21
   + 796 C22 + 285 C23 + 775 C24 + 781 C25 + 583 C26 + 577 C27 + 20 C28
   + 388 C29 + 607 C30 + 594 C31 + 461 C32 + 663 C33 + 465 C34 + 479 C35
   + 272 C36 + 708 C37 + 718 C38 + 1000 C39 + 612 C40 + 342 C41 + 373 C42
   + 422 C43 + 332 C44 + 868 C45 + 994 C46 + 614 C47 + 372 C48 + 303 C49
   + 219 C50 + 357 C51 + 517 C52 + 93 C53 + 135 C54 + 443 C55 + 921 C56
   + 369 C57 + 350 C58 + 95 C59 + 965 C60 + 647 C61 + 142 C62 + 286 C63
   + 577 C64 + 568 C65 + 850 C66 + 850 C67 + 32 C68 + 410 C69 + 387 C70
   + 316 C71 + 960 C72 + 132 C73 + 996 C74 + 850 C75 + 681 C76 + 908 C77
   + 814 C78 + 183 C79 + 46 C80 + 546 C81 + 129 C82 + 845 C83 + 597 C84
   + 936 C85 + 197 C86 + 395 C87 + 597 C88 + 744 C89 + 755 C90 + 990 C91
   + 76 C92 + 924 C93 + 766 C94 + 913 C95 + 958 C96 + 811 C97 + 161 C98
   + 540 C99 <= 14981
 R3: 117 C0 + 296 C1 + 888 C2 + 126 C3 + 899 C4 + 986 C5 + 85 C6 + 235 C7
   + 560 C8 + 492 C9 + 497 C10 + 627 C11 + 917 C12 + 866 C13 + 679 C14
   + 192 C15 + 612 C16 + 824 C17 + 974 C18 + 533 C19 + 885 C20 + 522 C21
   + 983 C22 + 550 C23 + 793 C24 + 307 C25 + 537 C26 + 156 C27 + 468 C28
   + 511 C29 + 628 C30 + 102 C31 + 38 C32 + 935 C33 + 612 C34 + 350 C35
   + 46 C36 + 567 C37 + 498 C38 + 432 C39 + 754 C40 + 401 C41 + 273 C42
   + 379 C43 + 696 C44 + 816 C45 + 925 C46 + 437 C47 + 268 C48 + 332 C49
   + 724 C50 + 769 C51 + 168 C52 + 952 C53 + 329 C54 + 735 C55 + 245 C56
   + 509 C57 + 469 C58 + 127 C59 + 972 C60 + 188 C61 + 668 C62 + 526 C63
   + 922 C64 + 374 C65 + 680 C66 + 500 C67 + 87 C68 + 940 C69 + 272 C70
   + 811 C71 + 502 C72 + 205 C73 + 479 C74 + 159 C75 + 706 C76 + 883 C77
   + 804 C78 + 62 C79 + 652 C80 + 284 C81 + 197 C82 + 446 C83 + 206 C84
   + 450 C85 + 274 C86 + 249 C87 + 551 C88 + 417 C89 + 842 C90 + 994 C91
   + 941 C92 + 531 C93 + 273 C94 + 781 C95 + 892 C96 + 750 C97 + 476 C98
   + 912 C99 <= 14193
 R4: 552 C0 + 872 C1 + 26 C2 + 178 C3 + 732 C4 + 488 C5 + 106 C6 + 351 C7
   + 568 C8 + 188 C9 + 900 C10 + 289 C11 + 380 C12 + 593 C13 + 409 C14
   + 966 C15 + 296 C16 + 367 C17 + 642 C18 + 772 C19 + 983 C20 + 80 C21
   + 738 C22 + 53 C23 + 151 C24 + 860 C25 + 850 C26 + 578 C27 + 985 C28
   + 446 C29 + 648 C30 + 585 C31 + 504 C32 + 300 C33 + 790 C34 + 87 C35
   + 596 C36 + 617 C37 + 484 C38 + 163 C39 + 211 C40 + 786 C41 + 445 C42
   + 88 C43 + 452 C44 + 419 C45 + 874 C46 + 88 C47 + 268 C48 + 919 C49
   + 137 C50 + 728 C51 + 501 C52 + 721 C53 + 659 C54 + 424 C55 + 218 C56
   + 966 C57 + 688 C58 + 375 C59 + 698 C60 + 934 C61 + 339 C62 + 41 C63
   + 615 C64 + 23 C65 + 477 C66 + 296 C67 + 630 C68 + 48 C69 + 667 C70
   + 627 C71 + 172 C72 + 902 C73 + 782 C74 + 97 C75 + 93 C76 + 704 C77
   + 366 C78 + 931 C79 + 100 C80 + 563 C81 + 878 C82 + 981 C83 + 57 C84
   + 957 C85 + 214 C86 + 587 C87 + 62 C88 + 737 C89 + 187 C90 + 67 C91
   + 216 C92 + 399 C93 + 726 C94 + 999 C95 + 326 C96 + 313 C97 + 111 C98
   + 310 C99 <= 12962
 R5: 130 C0 + 950 C1 + 207 C2 + 671 C3 + 754 C4 + 391 C5 + 368 C6 + 469 C7
   + 214 C8 + 483 C9 + 694 C10 + 209 C11 + 767 C12 + 82 C13 + 98 C14
   + 675 C15 + 988 C16 + 347 C17 + 202 C18 + 382 C19 + 443 C20 + 766 C21
   + 394 C22 + 294 C23 + 946 C24 + 417 C25 + 177 C26 + 930 C27 + 219 C28
   + 307 C29 + 899 C30 + 609 C31 + 313 C32 + 114 C33 + 457 C34 + 815 C35
   + 405 C36 + 581 C37 + 611 C38 + 868 C39 + 183 C40 + 33 C41 + 393 C42
   + 761 C43 + 621 C44 + 732 C45 + 141 C46 + 625 C47 + 620 C48 + 307 C49
   + 456 C50 + 241 C51 + 890 C52 + 580 C53 + 6 C54 + 903 C55 + 216 C56
   + 507 C57 + 163 C58 + 972 C59 + 880 C60 + 844 C61 + 394 C62 + 650 C63
   + 82 C64 + 45 C65 + 961 C66 + 402 C67 + 805 C68 + 665 C69 + 958 C70
   + 94 C71 + 288 C72 + 188 C73 + 496 C74 + 482 C75 + 550 C76 + 938 C77
   + 534 C78 + 161 C79 + 971 C80 + 38 C81 + 304 C82 + 723 C83 + 306 C84
   + 572 C85 + 63 C86 + 24 C87 + 274 C88 + 45 C89 + 349 C90 + 851 C91
   + 500 C92 + 397 C93 + 260 C94 + 95 C95 + 797 C96 + 334 C97 + 831 C98
   + 674 C99 <= 13200
 R6: 779 C0 + 771 C1 + 578 C2 + 764 C3 + 41 C4 + 564 C5 + 603 C6 + 397 C7
   + 283 C8 + 756 C9 + 382 C10 + 50 C11 + 744 C12 + 988 C13 + 338 C14
   + 214 C15 + 899 C16 + 837 C17 + 788 C18 + 688 C19 + 128 C20 + 656 C21
   + 663 C22 + 888 C23 + 575 C24 + 373 C25 + 344 C26 + 121 C27 + 506 C28
   + 358 C29 + 674 C30 + 926 C31 + 685 C32 + 657 C33 + 215 C34 + 932 C35
   + 875 C36 + 560 C37 + 738 C38 + 891 C39 + 851 C40 + 409 C41 + 973 C42
   + 339 C43 + 564 C44 + 155 C45 + 413 C46 + 688 C47 + 949 C48 + 103 C49
   + 982 C50 + 206 C51 + 171 C52 + 515 C53 + 64 C54 + 764 C55 + 209 C56
   + 349 C57 + 71 C58 + 344 C59 + 713 C60 + 508 C61 + 828 C62 + 813 C63
   + 189 C64 + 558 C65 + 29 C66 + 862 C67 + 444 C68 + 896 C69 + 260 C70
   + 170 C71 + 357 C72 + 289 C73 + 938 C74 + 517 C75 + 813 C76 + 630 C77
   + 650 C78 + 251 C79 + 41 C80 + 267 C81 + 629 C82 + 100 C83 + 18 C84
   + 350 C85 + 9 C86 + 981 C87 + 507 C88 + 532 C89 + 817 C90 + 892 C91
   + 611 C92 + 728 C93 + 658 C94 + 657 C95 + 330 C96 + 335 C97 + 523 C98
   + 564 C99 <= 13153
 R7: 326 C0 + 773 C1 + 722 C2 + 339 C3 + 747 C4 + 493 C5 + 558 C6 + 49 C7
   + 493 C8 + 978 C9 + 896 C10 + 597 C11 + 597 C12 + 929 C13 + 825 C14
   + 864 C15 + 973 C16 + 906 C17 + 218 C18 + 940 C19 + 715 C20 + 603 C21
   + 533 C22 + 564 C23 + 78 C24 + 283 C25 + 31 C26 + 528 C27 + 917 C28
   + 487 C29 + 618 C30 + 557 C31 + 552 C32 + 246 C33 + 243 C34 + 558 C35
   + 269 C36 + 212 C37 + 761 C38 + 141 C39 + 131 C40 + 321 C41 + 33 C42
   + 784 C43 + 347 C44 + 552 C45 + 777 C46 + 203 C47 + 564 C48 + 479 C49
   + 370 C50 + 97 C51 + 851 C52 + 569 C53 + 588 C54 + 210 C55 + 452 C56
   + 148 C57 + 73 C58 + 163 C59 + 828 C60 + 979 C61 + 113 C62 + 497 C63
   + 842 C64 + 620 C65 + 673 C66 + 115 C67 + 473 C68 + 111 C69 + 818 C70
   + 210 C71 + 871 C72 + 99 C73 + 202 C74 + 690 C75 + 858 C76 + 304 C77
   + 342 C78 + 869 C79 + 471 C80 + 916 C81 + 250 C82 + 804 C83 + 770 C84
   + 678 C85 + 694 C86 + 349 C87 + 757 C88 + 924 C89 + 945 C90 + 891 C91
   + 320 C92 + 413 C93 + 689 C94 + 624 C95 + 373 C96 + 750 C97 + 586 C98
   + 122 C99 <= 14540
 R8: 753 C0 + 717 C1 + 418 C2 + 649 C3 + 849 C4 + 999 C5 + 46 C6 + 92 C7
   + 2 C8 + 218 C9 + 791 C10 + 983 C11 + 830 C12 + 81 C13 + 298 C14
   + 237 C15 + 400 C16 + 579 C17 + 978 C18 + 13 C19 + 239 C20 + 690 C21
   + 766 C22 + 398 C23 + 650 C24 + 557 C25 + 906 C26 + 81 C27 + 7 C28
   + 276 C29 + 126 C30 + 587 C31 + 108 C32 + 263 C33 + 129 C34 + 360 C35
   + 657 C36 + 29 C37 + 699 C38 + 822 C39 + 724 C40 + 797 C41 + 973 C42
   + 479 C43 + 234 C44 + 623 C45 + 290 C46 + 164 C47 + 742 C48 + 551 C49
   + 217 C50 + 905 C51 + 531 C52 + 847 C53 + 457 C54 + 197 C55 + 681 C56
   + 345 C57 + 436 C58 + 758 C59 + 66 C60 + 391 C61 + 167 C62 + 574 C63
   + 770 C64 + 380 C65 + 399 C66 + 688 C67 + 40 C68 + 214 C69 + 562 C70
   + 840 C71 + 38 C72 + 945 C73 + 920 C74 + 734 C75 + 730 C76 + 509 C77
   + 961 C78 + 249 C79 + 866 C80 + 811 C81 + 763 C82 + 547 C83 + 26 C84
   + 578 C85 + 666 C86 + 928 C87 + 349 C88 + 884 C89 + 366 C90 + 285 C91
   + 789 C92 + 535 C93 + 75 C94 + 43 C95 + 115 C96 + 868 C97 + 787 C98
   + 721 C99 <= 13780
 R9: 197 C0 + 897 C1 + 67 C2 + 931 C3 + 34 C4 + 431 C5 + 8 C6 + 100 C7
   + 286 C8 + 724 C9 + 312 C10 + 444 C11 + 918 C12 + 742 C13 + 152 C14
   + 825 C15 + 35 C16 + 83 C17 + 305 C18 + 55 C19 + 895 C20 + 675 C21
   + 897 C22 + 504 C23 + 640 C24 + 3 C25 + 250 C26 + 242 C27 + 823 C28
   + 928 C29 + 270 C30 + 987 C31 + 320 C32 + 903 C33 + 374 C34 + 541 C35
   + 639 C36 + 495 C37 + 260 C38 + 905 C39 + 94 C40 + 803 C41 + 374 C42
   + 364 C43 + 577 C44 + 129 C45 + 31 C46 + 213 C47 + 790 C48 + 883 C49
   + 549 C50 + 170 C51 + 397 C52 + 393 C53 + 645 C54 + 461 C55 + 772 C56
   + 571 C57 + 822 C58 + 850 C59 + 111 C60 + 927 C61 + 167 C62 + 62 C63
   + 753 C64 + 679 C65 + 906 C66 + 638 C67 + 549 C68 + 8 C69 + 581 C70
   + 220 C71 + 499 C72 + 66 C73 + 676 C74 + 451 C75 + 131 C76 + 923 C77
   + 697 C78 + 85 C79 + 747 C80 + 282 C81 + 839 C82 + 225 C83 + 241 C84
   + 643 C85 + 801 C86 + 486 C87 + 255 C88 + 336 C89 + 717 C90 + 837 C91
   + 569 C92 + 170 C93 + 983 C94 + 425 C95 + 528 C96 + 154 C97 + 119 C98
   + 624 C99 <= 12387
 R10: 836 C0 + 546 C1 + 523 C2 + 327 C3 + 67 C4 + 850 C5 + 242 C6 + 736 C7
   + 172 C8 + 780 C9 + 790 C10 + 562 C11 + 819 C12 + 367 C13 + 878 C14
   + 228 C15 + 114 C16 + 435 C17 + 974 C18 + 345 C19 + 923 C20 + 177 C21
   + 824 C22 + 298 C23 + 559 C24 + 360 C25 + 798 C26 + 838 C27 + 902 C28
   + 39 C29 + 199 C30 + 418 C31 + 877 C32 + 782 C33 + 749 C34 + 481 C35
   + 592 C36 + 579 C37 + 360 C38 + 842 C39 + 901 C40 + 685 C41 + 133 C42
   + 740 C43 + 836 C44 + 242 C45 + 100 C46 + 314 C47 + 80 C48 + 409 C49
   + 188 C50 + 551 C51 + 455 C52 + 991 C53 + 830 C54 + 688 C55 + 280 C56
   + 834 C57 + 876 C58 + 500 C59 + 49 C60 + 366 C61 + 592 C62 + 604 C63
   + 582 C64 + 627 C65 + 804 C66 + 682 C67 + 249 C68 + 156 C69 + 581 C70
   + 291 C71 + 517 C72 + 861 C73 + 895 C74 + 459 C75 + 320 C76 + 332 C77
   + 199 C78 + 749 C79 + 203 C80 + 676 C81 + 274 C82 + 56 C83 + 59 C84
   + 761 C85 + 152 C86 + 521 C87 + 541 C88 + 167 C89 + 824 C90 + 586 C91
   + 603 C92 + 184 C93 + 11 C94 + 358 C95 + 473 C96 + 90 C97 + 648 C98
   + 905 C99 <= 14031
 R11: 438 C0 + 341 C1 + 722 C2 + 425 C3 + 596 C4 + 165 C5 + 891 C6 + 536 C7
   + 782 C8 + 76 C9 + 671 C10 + 852 C11 + 692 C12 + 212 C13 + 249 C14
   + 324 C15 + 863 C16 + 951 C17 + 470 C18 + 739 C19 + 148 C20 + 263 C21
   + 899 C22 + 554 C23 + 419 C24 + 861 C25 + 431 C26 + 911 C27 + 141 C28
   + 418 C29 + 352 C30 + 568 C31 + 16 C32 + 606 C33 + 327 C34 + 949 C35
   + 250 C36 + 388 C37 + 819 C38 + 225 C39 + 118 C40 + 2 C41 + 206 C42
   + 70 C43 + 753 C44 + 930 C45 + 9 C46 + 27 C47 + 916 C48 + 882 C49
   + 496 C50 + 39 C51 + 287 C52 + 499 C53 + 5 C54 + 762 C55 + 506 C56
   + 11 C57 + 326 C58 + 161 C59 + 482 C60 + 419 C61 + 101 C62 + 365 C63
   + 293 C64 + 49 C65 + 739 C66 + 392 C67 + 967 C68 + 955 C69 + 21 C70
   + 295 C71 + 985 C72 + 119 C73 + 58 C74 + 213 C75 + 972 C76 + 909 C77
   + 329 C78 + 349 C79 + 256 C80 + 585 C81 + 669 C82 + 317 C83 + 677 C84
   + 650 C85 + 157 C86 + 852 C87 + 326 C88 + 341 C89 + 429 C90 + 826 C91
   + 465 C92 + 678 C93 + 495 C94 + 666 C95 + 735 C96 + 475 C97 + 263 C98
   + 408 C99 <= 12549
 R12: 235 C0 + 457 C1 + 954 C2 + 721 C3 + 653 C4 + 987 C5 + 212 C6 + 143 C7
   + 700 C8 + 166 C9 + 330 C10 + 914 C11 + 309 C12 + 949 C13 + 694 C14
   + 758 C15 + 878 C16 + 893 C17 + 252 C18 + 670 C19 + 801 C20 + 32 C21
   + 975 C22 + 452 C23 + 128 C24 + 875 C25 + 246 C26 + 117 C27 + 261 C28
   + 550 C29 + 771 C30 + 246 C31 + 151 C32 + 190 C33 + 721 C34 + 225 C35
   + 692 C36 + 485 C37 + 147 C38 + 622 C39 + 433 C40 + 812 C41 + 84 C42
   + 322 C43 + 26 C44 + 109 C45 + 538 C46 + 904 C47 + 522 C48 + 571 C49
   + 834 C50 + 274 C51 + 538 C52 + 590 C53 + 226 C54 + 245 C55 + 585 C56
   + 857 C57 + 713 C58 + 807 C59 + 783 C60 + 650 C61 + 327 C62 + 282 C63
   + 114 C64 + 83 C65 + 771 C66 + 734 C67 + 517 C68 + 741 C69 + 376 C70
   + 768 C71 + 900 C72 + 432 C73 + 239 C74 + 917 C75 + 975 C76 + 522 C77
   + 203 C78 + 428 C79 + 314 C80 + 733 C81 + 327 C82 + 230 C83 + 833 C84
   + 839 C85 + 943 C86 + 702 C87 + 19 C88 + 640 C89 + 369 C90 + 801 C91
   + 598 C92 + 774 C93 + 794 C94 + 716 C95 + 132 C96 + 464 C97 + 504 C98
   + 688 C99 <= 14414
 R13: 536 C0 + 204 C1 + 675 C2 + 990 C3 + 203 C4 + 241 C5 + 858 C6 + 18 C7
   + 717 C8 + 891 C9 + 879 C10 + 58 C11 + 492 C12 + 522 C13 + 34 C14
   + 547 C15 + 974 C16 + 314 C17 + 614 C18 + 447 C19 + 918 C20 + 945 C21
   + 333 C22 + 673 C23 + 992 C24 + 402 C25 + 533 C26 + 340 C27 + 981 C28
   + 596 C29 + 895 C30 + 430 C31 + 613 C32 + 105 C33 + 547 C34 + 129 C35
   + 520 C36 + 927 C37 + 350 C38 + 155 C39 + 730 C40 + 9 C41 + 326 C42
   + 186 C43 + 906 C44 + 787 C45 + 371 C46 + 745 C47 + 865 C48 + 943 C49
   + 526 C50 + 233 C51 + 379 C52 + 123 C53 + 375 C54 + 440 C55 + 407 C56
   + 567 C57 + 167 C58 + 306 C59 + 46 C60 + 679 C61 + 569 C62 + 122 C63
   + 301 C64 + 461 C65 + 762 C66 + 311 C67 + 330 C68 + 507 C69 + 74 C70
   + 599 C71 + 720 C72 + 915 C73 + 34 C74 + 260 C75 + 707 C76 + 543 C77
   + 940 C78 + 552 C79 + 171 C80 + 831 C81 + 232 C82 + 866 C83 + 264 C84
   + 158 C85 + 372 C86 + 862 C87 + 42 C88 + 852 C89 + 585 C90 + 894 C91
   + 13 C92 + 778 C93 + 798 C94 + 827 C95 + 302 C96 + 71 C97 + 117 C98
   + 793 C99 <= 13871
 R14: 417 C0 + 468 C1 + 200 C2 + 829 C3 + 542 C4 + 969 C5 + 521 C6 + 320 C7
   + 887 C8 + 206 C9 + 915 C10 + 904 C11 + 474 C12 + 706 C13 + 244 C14
   + 283 C15 + 583 C16 + 507 C17 + 319 C18 + 907 C19 + 945 C20 + 626 C21
   + 635 C22 + 976 C23 + 644 C24 + 892 C25 + 734 C26 + 120 C27 + 82 C28
   + 519 C29 + 143 C30 + 191 C31 + 173 C32 + 699 C33 + 310 C34 + 606 C35
   + 44 C36 + 548 C37 + 36 C38 + 301 C39 + 975 C40 + 129 C41 + 657 C42
   + 17 C43 + 816 C44 + 310 C45 + 105 C46 + 12 C47 + 807 C48 + 490 C49
   + 390 C50 + 287 C51 + 460 C52 + 272 C53 + 733 C54 + 479 C55 + 770 C56
   + 957 C57 + 872 C58 + 554 C59 + 256 C60 + 942 C61 + 166 C62 + 713 C63
   + 295 C64 + 255 C65 + 636 C66 + 827 C67 + 995 C68 + 811 C69 + 626 C70
   + 965 C71 + 105 C72 + 527 C73 + 102 C74 + 779 C75 + 157 C76 + 405 C77
   + 392 C78 + 941 C79 + 856 C80 + 898 C81 + 338 C82 + 458 C83 + 83 C84
   + 262 C85 + 22 C86 + 997 C87 + 295 C88 + 542 C89 + 893 C90 + 658 C91
   + 664 C92 + 259 C93 + 475 C94 + 159 C95 + 14 C96 + 593 C97 + 756 C98
   + 202 C99 <= 14033
 R15: 617 C0 + 239 C1 + 532 C2 + 431 C3 + 183 C4 + 89 C5 + 369 C6 + 590 C7
   + 679 C8 + 71 C9 + 409 C10 + 550 C11 + 346 C12 + 387 C13 + 867 C14
   + 315 C15 + 231 C16 + 317 C17 + 679 C18 + 177 C19 + 195 C20 + 383 C21
   + 820 C22 + 934 C23 + 67 C24 + 711 C25 + 622 C26 + 689 C27 + 705 C28
   + 104 C29 + 428 C30 + 116 C31 + 56 C32 + 95 C33 + 562 C34 + 642 C35
   + 256 C36 + 134 C37 + 691 C38 + 290 C39 + 487 C40 + 635 C41 + 956 C42
   + 678 C43 + 806 C44 + 782 C45 + 488 C46 + 732 C47 + 543 C48 + 941 C49
   + 840 C50 + 562 C51 + 751 C52 + 919 C53 + 95 C54 + 327 C55 + 680 C56
   + 250 C57 + 958 C58 + 822 C59 + 747 C60 + 580 C61 + 988 C62 + 698 C63
   + 679 C64 + 892 C65 + 19 C66 + 440 C67 + 140 C68 + 151 C69 + 179 C70
   + 230 C71 + 678 C72 + 282 C73 + 400 C74 + 527 C75 + 531 C76 + 610 C77
   + 666 C78 + 860 C79 + 347 C80 + 724 C81 + 208 C82 + 986 C83 + 850 C84
   + 454 C85 + 36 C86 + 61 C87 + 406 C88 + 450 C89 + 564 C90 + 672 C91
   + 121 C92 + 214 C93 + 190 C94 + 50 C95 + 310 C96 + 461 C97 + 936 C98
   + 487 C99 <= 13431
 R16: 723 C0 + 795 C1 + 827 C2 + 972 C3 + 963 C4 + 674 C5 + 534 C6 + 352 C7
   + 424 C8 + 264 C9 + 673 C10 + 754 C11 + 195 C12 + 741 C13 + 680 C14
   + 711 C15 + 148 C16 + 461 C17 + 307 C18 + 569 C19 + 375 C20 + 137 C21
   + 248 C22 + 710 C23 + 884 C24 + 134 C25 + 432 C26 + 485 C27 + 157 C28
   + 954 C29 + 377 C30 + 808 C31 + 734 C32 + 890 C33 + 41 C34 + 586 C35
   + 582 C36 + 30 C37 + 485 C38 + 72 C39 + 927 C40 + 839 C41 + 501 C42
   + 752 C43 + 791 C44 + 149 C45 + 720 C46 + 522 C47 + 909 C48 + 115 C49
   + 990 C50 + 257 C51 + 866 C52 + 151 C53 + 385 C54 + 231 C55 + 629 C56
   + 402 C57 + 690 C58 + 595 C59 + 957 C60 + 236 C61 + 438 C62 + 20 C63
   + 203 C64 + 661 C65 + 37 C66 + 50 C67 + 927 C68 + 116 C69 + 574 C70
   + 433 C71 + 88 C72 + 63 C73 + 181 C74 + 628 C75 + 296 C76 + 359 C77
   + 287 C78 + 868 C79 + 469 C80 + 225 C81 + 43 C82 + 742 C83 + 384 C84
   + 187 C85 + 80 C86 + 661 C87 + 555 C88 + 181 C89 + 662 C90 + 644 C91
   + 60 C92 + 795 C93 + 406 C94 + 865 C95 + 236 C96 + 268 C97 + 521 C98
   + 386 C99 <= 13147
 R17: 847 C0 + 484 C1 + 689 C2 + C3 + 721 C4 + 601 C5 + 465 C6 + 440 C7
   + 93 C8 + 96 C9 + 302 C10 + 19 C11 + 468 C12 + 998 C13 + 306 C14
   + 151 C15 + 119 C16 + 653 C17 + 701 C18 + 782 C19 + 166 C20 + 100 C21
   + 314 C22 + 872 C23 + 348 C24 + 830 C25 + 370 C26 + 144 C27 + 544 C28
   + 501 C29 + 235 C30 + 292 C31 + 877 C32 + 471 C33 + 678 C34 + 242 C35
   + 252 C36 + 517 C37 + 915 C38 + 146 C39 + 718 C40 + 874 C41 + 485 C42
   + 840 C43 + 851 C44 + 114 C45 + 733 C46 + 54 C47 + 721 C48 + 46 C49
   + 343 C50 + 204 C51 + 38 C52 + 194 C53 + 103 C54 + 31 C55 + 548 C56
   + 397 C57 + 450 C58 + 553 C59 + 840 C60 + 859 C61 + 340 C62 + 742 C63
   + 240 C64 + 964 C65 + 420 C66 + 210 C67 + 407 C68 + 810 C69 + 273 C70
   + 756 C71 + 931 C72 + 221 C73 + 819 C74 + 323 C75 + 937 C76 + 118 C77
   + 458 C78 + 762 C79 + 757 C80 + 414 C81 + 135 C82 + 661 C83 + 819 C84
   + 892 C85 + 60 C86 + 848 C87 + 684 C88 + 32 C89 + 957 C90 + 612 C91
   + 442 C92 + 235 C93 + 411 C94 + 153 C95 + 386 C96 + 867 C97 + 60 C98
   + 787 C99 <= 13165
 R18: 524 C0 + 112 C1 + 164 C2 + 180 C3 + 180 C4 + 983 C5 + 785 C6 + 52 C7
   + 46 C8 + 721 C9 + 194 C10 + 331 C11 + 19 C12 + 283 C13 + 237 C14
   + 482 C15 + 230 C16 + 796 C17 + 867 C18 + 493 C19 + 397 C20 + 361 C21
   + 540 C22 + 969 C23 + 280 C24 + 391 C25 + 833 C26 + 685 C27 + 915 C28
   + 405 C29 + 470 C30 + 979 C31 + 475 C32 + 760 C33 + 555 C34 + 379 C35
   + 370 C36 + 27 C37 + 359 C38 + 435 C39 + 874 C40 + 804 C41 + 68 C42
   + 24 C43 + 219 C44 + 504 C45 + 537 C46 + 819 C47 + 294 C48 + 210 C49
   + 313 C50 + 645 C51 + 549 C52 + 21 C53 + 270 C54 + 328 C55 + 280 C56
   + 95 C57 + 710 C58 + 939 C59 + 185 C60 + 50 C61 + 553 C62 + 387 C63
   + 434 C64 + 953 C65 + 832 C66 + 985 C67 + 323 C68 + 767 C69 + 781 C70
   + 776 C71 + 422 C72 + 183 C73 + 89 C74 + 315 C75 + 526 C76 + 10 C77
   + 186 C78 + 953 C79 + 875 C80 + 532 C81 + 841 C82 + 423 C83 + 230 C84
   + 438 C85 + 557 C86 + 57 C87 + 748 C88 + 442 C89 + 953 C90 + 561 C91
   + 942 C92 + 360 C93 + 478 C94 + 971 C95 + 419 C96 + 595 C97 + 257 C98
   + 142 C99 <= 12675
 R19: 321 C0 + 403 C1 + 554 C2 + 971 C3 + 992 C4 + 72 C5 + 145 C6 + 419 C7
   + 331 C8 + 683 C9 + 833 C10 + 290 C11 + 909 C12 + 637 C13 + 305 C14
   + 461 C15 + 679 C16 + 588 C17 + 767 C18 + 812 C19 + 756 C20 + 1000 C21
   + 428 C22 + 336 C23 + 384 C24 + 146 C25 + 373 C26 + 283 C27 + 284 C28
   + 759 C29 + 974 C30 + 202 C31 + 867 C32 + 919 C33 + 447 C34 + 740 C35
   + 730 C36 + 89 C37 + 236 C38 + 63 C39 + 642 C40 + 27 C41 + 157 C42
   + 527 C43 + 636 C44 + 258 C45 + 138 C46 + 365 C47 + 592 C48 + 229 C49
   + 533 C50 + 145 C51 + 518 C52 + 970 C53 + 36 C54 + 96 C55 + 705 C56
   + 765 C57 + 701 C58 + 467 C59 + 191 C60 + 381 C61 + 240 C62 + 261 C63
   + 618 C64 + 853 C65 + 723 C66 + 162 C67 + 851 C68 + 18 C69 + 777 C70
   + 880 C71 + 763 C72 + 25 C73 + 335 C74 + 24 C75 + 369 C76 + 838 C77
   + 420 C78 + 185 C79 + 890 C80 + 908 C81 + 750 C82 + 200 C83 + 484 C84
   + 720 C85 + 172 C86 + 880 C87 + 480 C88 + 132 C89 + 119 C90 + 795 C91
   + 603 C92 + 636 C93 + 727 C94 + 855 C95 + 452 C96 + 522 C97 + 912 C98
   + 679 C99 <= 13948
 R20: 107 C0 + 346 C1 + 297 C2 + 551 C3 + 382 C4 + 981 C5 + 271 C6 + 196 C7
   + 26 C8 + 982 C9 + 414 C10 + 479 C11 + 875 C12 + 950 C13 + 579 C14
   + 944 C15 + 476 C16 + 552 C17 + 802 C18 + 938 C19 + 510 C20 + 940 C21
   + 83 C22 + 131 C23 + 825 C24 + 28 C25 + 219 C26 + 32 C27 + 939 C28
   + 800 C29 + 35 C30 + 858 C31 + 626 C32 + 657 C33 + 971 C34 + 426 C35
   + 875 C36 + 752 C37 + 205 C38 + 589 C39 + 529 C40 + 164 C41 + 193 C42
   + 784 C43 + 381 C44 + 6 C45 + 676 C46 + 11 C47 + 392 C48 + 172 C49
   + 7 C50 + 261 C51 + 281 C52 + 671 C53 + 8 C54 + 163 C55 + 231 C56
   + 534 C57 + 147 C58 + 47 C59 + 565 C60 + 38 C61 + 151 C62 + 322 C63
   + 537 C64 + 8 C65 + 321 C66 + 370 C67 + 843 C68 + 673 C69 + 800 C70
   + 338 C71 + 173 C72 + 328 C73 + 13 C74 + 76 C75 + 623 C76 + 737 C77
   + 960 C78 + 551 C79 + 431 C80 + 916 C81 + 51 C82 + 585 C83 + 507 C84
   + 821 C85 + 112 C86 + 474 C87 + 503 C88 + 297 C89 + 57 C90 + 902 C91
   + 812 C92 + 213 C93 + 274 C94 + 825 C95 + 879 C96 + 87 C97 + 817 C98
   + 687 C99 <= 12694
 R21: 341 C0 + 937 C1 + 521 C2 + 939 C3 + 559 C4 + 49 C5 + 473 C6 + 843 C7
   + 273 C8 + 825 C9 + 616 C10 + 382 C11 + 866 C12 + 591 C13 + 541 C14
   + 549 C15 + 51 C16 + 973 C17 + 872 C18 + 242 C19 + 392 C20 + 94 C21
   + 138 C22 + 572 C23 + 312 C24 + 781 C25 + 989 C26 + 941 C27 + 924 C28
   + 516 C29 + 739 C30 + 729 C31 + 809 C32 + 983 C33 + 96 C34 + 711 C35
   + 357 C36 + 71 C37 + 358 C38 + 550 C39 + 459 C40 + 806 C41 + 92 C42
   + 142 C43 + 39 C44 + 870 C45 + 502 C46 + 379 C47 + C48 + 727 C49
   + 731 C50 + 698 C51 + 258 C52 + 868 C53 + 465 C54 + 472 C55 + 687 C56
   + 516 C57 + 608 C58 + 143 C59 + 552 C60 + 554 C61 + 321 C62 + 984 C63
   + 215 C64 + 572 C65 + 212 C66 + 872 C67 + 545 C68 + 75 C69 + 28 C70
   + 867 C71 + 998 C72 + 159 C73 + 796 C74 + 832 C75 + 600 C76 + 896 C77
   + 70 C78 + 433 C79 + 133 C80 + 700 C81 + 927 C82 + 969 C83 + 229 C84
   + 499 C85 + 220 C86 + 532 C87 + 947 C88 + 212 C89 + 938 C90 + 960 C91
   + 715 C92 + 158 C93 + 369 C94 + 220 C95 + 679 C96 + 711 C97 + 894 C98
   + 693 C99 <= 14977
 R22: 705 C0 + 836 C1 + 27 C2 + 443 C3 + 160 C4 + 756 C5 + 703 C6 + 813 C7
   + 804 C8 + 909 C9 + 260 C10 + 585 C11 + 144 C12 + 59 C13 + 429 C14
   + 545 C15 + 273 C16 + 268 C17 + 772 C18 + 654 C19 + 858 C20 + 213 C21
   + 589 C22 + 814 C23 + 205 C24 + 922 C25 + 339 C26 + 413 C27 + 242 C28
   + 728 C29 + 358 C30 + 573 C31 + 191 C32 + 139 C33 + 242 C34 + 437 C35
   + 907 C36 + 182 C37 + 518 C38 + 267 C39 + 211 C40 + 854 C41 + 969 C42
   + 681 C43 + 488 C44 + 61 C45 + 5 C46 + 736 C47 + 199 C48 + 391 C49
   + 832 C50 + 719 C51 + 574 C52 + 646 C53 + 358 C54 + 954 C55 + 351 C56
   + 374 C57 + 105 C58 + 51 C59 + 166 C60 + 736 C61 + 83 C62 + 273 C63
   + 499 C64 + 631 C65 + 210 C66 + 451 C67 + 886 C68 + 340 C69 + 441 C70
   + 275 C71 + 917 C72 + 74 C73 + 509 C74 + 314 C75 + 239 C76 + 673 C77
   + 382 C78 + 448 C79 + 350 C80 + 179 C81 + 993 C82 + 48 C83 + 6 C84
   + 423 C85 + 616 C86 + 452 C87 + 784 C88 + 673 C89 + 113 C90 + 294 C91
   + 941 C92 + 630 C93 + 351 C94 + 378 C95 + 355 C96 + 361 C97 + 346 C98
   + 292 C99 <= 11493
 R23: 202 C0 + 919 C1 + 471 C2 + 205 C3 + 395 C4 + 850 C5 + 535 C6 + 517 C7
   + 228 C8 + 951 C9 + 89 C10 + 479 C11 + 910 C12 + 952 C13 + 495 C14
   + 239 C15 + 219 C16 + 777 C17 + 457 C18 + 812 C19 + 280 C20 + 451 C21
   + 764 C22 + 814 C23 + 439 C24 + 859 C25 + 167 C26 + 598 C27 + 865 C28
   + 80 C29 + 715 C30 + 584 C31 + 645 C32 + 158 C33 + 337 C34 + 89 C35
   + 883 C36 + 861 C37 + 584 C38 + 64 C39 + 207 C40 + 968 C41 + 613 C42
   + 686 C43 + 903 C44 + 127 C45 + 690 C46 + 333 C47 + 963 C48 + 956 C49
   + 242 C50 + 290 C51 + 847 C52 + 205 C53 + 265 C54 + 258 C55 + 290 C56
   + 886 C57 + 38 C58 + 702 C59 + 203 C60 + 172 C61 + 493 C62 + 550 C63
   + 465 C64 + 314 C65 + 262 C66 + 15 C67 + 999 C68 + 187 C69 + 376 C70
   + 708 C71 + 849 C72 + 116 C73 + 12 C74 + 53 C75 + 121 C76 + 823 C77
   + 345 C78 + 882 C79 + 448 C80 + 454 C81 + 594 C82 + 342 C83 + 406 C84
   + 830 C85 + 777 C86 + 484 C87 + 511 C88 + 728 C89 + 498 C90 + 890 C91
   + 83 C92 + 190 C93 + 736 C94 + 768 C95 + 364 C96 + 425 C97 + 504 C98
   + 967 C99 <= 12713
 R24: 126 C0 + 845 C1 + 207 C2 + 945 C3 + 816 C4 + 33 C5 + 532 C6 + 156 C7
   + 733 C8 + 24 C9 + 109 C10 + 110 C11 + 873 C12 + 394 C13 + 402 C14
   + 944 C15 + 339 C16 + 463 C17 + 36 C18 + 322 C19 + 343 C20 + 952 C21
   + 580 C22 + 882 C23 + 824 C24 + 621 C25 + 915 C26 + 180 C27 + 432 C28
   + 390 C29 + 813 C30 + 753 C31 + 256 C32 + 483 C33 + 788 C34 + 479 C35
   + 926 C36 + 682 C37 + 989 C38 + 931 C39 + 673 C40 + 187 C41 + 973 C42
   + 753 C43 + 54 C44 + 373 C45 + 282 C46 + 736 C47 + 712 C48 + 335 C49
   + 194 C50 + 118 C51 + 481 C52 + 374 C53 + 579 C54 + 62 C55 + 283 C56
   + 586 C57 + 615 C58 + 780 C59 + 284 C60 + 47 C61 + 206 C62 + 772 C63
   + 917 C64 + 220 C65 + 944 C66 + 222 C67 + 986 C68 + 37 C69 + 161 C70
   + 906 C71 + 255 C72 + 168 C73 + 579 C74 + 291 C75 + 799 C76 + 545 C77
   + 114 C78 + 645 C79 + 820 C80 + 847 C81 + 514 C82 + 422 C83 + 309 C84
   + 899 C85 + 289 C86 + 102 C87 + 922 C88 + 908 C89 + 532 C90 + 534 C91
   + 921 C92 + 324 C93 + 962 C94 + 786 C95 + 246 C96 + 272 C97 + 146 C98
   + 366 C99 <= 14078
 R25: 956 C0 + 394 C1 + 854 C2 + 969 C3 + 559 C4 + 686 C5 + 749 C6 + 644 C7
   + 373 C8 + 614 C9 + 577 C10 + 265 C11 + 335 C12 + 102 C13 + 677 C14
   + 460 C15 + 131 C16 + 447 C17 + 532 C18 + 338 C19 + 743 C20 + 44 C21
   + 9 C22 + 84 C23 + 333 C24 + 702 C25 + 90 C26 + 914 C27 + 682 C28
   + 328 C29 + 516 C30 + 7 C31 + 253 C32 + 297 C33 + 141 C34 + 832 C35
   + 271 C36 + 701 C37 + 347 C38 + 476 C39 + 190 C40 + 299 C41 + 312 C42
   + 11 C43 + 465 C44 + 836 C45 + 706 C46 + 38 C47 + 244 C48 + 488 C49
   + 860 C50 + 930 C51 + 585 C52 + 385 C53 + 39 C54 + 580 C55 + 898 C56
   + 676 C57 + 398 C58 + 867 C59 + 201 C60 + 707 C61 + 748 C62 + 288 C63
   + 515 C64 + 611 C65 + 821 C66 + 871 C67 + 384 C68 + 270 C69 + 959 C70
   + 659 C71 + 660 C72 + 104 C73 + 759 C74 + 890 C75 + 27 C76 + 954 C77
   + 43 C78 + 101 C79 + 94 C80 + 745 C81 + 859 C82 + 862 C83 + 592 C84
   + 187 C85 + 262 C86 + 919 C87 + 751 C88 + 527 C89 + 421 C90 + 487 C91
   + 923 C92 + 897 C93 + 490 C94 + 795 C95 + 304 C96 + 752 C97 + 263 C98
   + 982 C99 <= 14058
 R26: 963 C0 + 920 C1 + 743 C2 + 344 C3 + 342 C4 + 390 C5 + 549 C6 + 272 C7
   + 604 C8 + 295 C9 + 237 C10 + 105 C11 + 355 C12 + 23 C13 + 607 C14
   + 782 C15 + 748 C16 + 947 C17 + 125 C18 + 437 C19 + 948 C20 + 854 C21
   + 960 C22 + 436 C23 + 968 C24 + 787 C25 + 967 C26 + 319 C27 + 867 C28
   + 615 C29 + 259 C30 + 492 C31 + 143 C32 + 812 C33 + 275 C34 + 589 C35
   + 20 C36 + 460 C37 + 883 C38 + 883 C39 + 156 C40 + 332 C41 + 723 C42
   + 482 C43 + 618 C44 + 149 C45 + 680 C46 + 393 C47 + 342 C48 + 25 C49
   + 29 C50 + 214 C51 + 233 C52 + 505 C53 + 79 C54 + 972 C55 + 65 C56
   + 737 C57 + 587 C58 + 699 C59 + 908 C60 + 952 C61 + 169 C62 + 19 C63
   + 364 C64 + 505 C65 + 245 C66 + 728 C67 + 935 C68 + 707 C69 + 225 C70
   + 44 C71 + 411 C72 + 704 C73 + 579 C74 + 640 C75 + 699 C76 + 728 C77
   + 688 C78 + 761 C79 + 500 C80 + 947 C81 + 254 C82 + 74 C83 + 39 C84
   + 649 C85 + 338 C86 + 709 C87 + 244 C88 + 434 C89 + 334 C90 + 145 C91
   + 819 C92 + 996 C93 + 848 C94 + 306 C95 + 674 C96 + 495 C97 + 987 C98
   + 539 C99 <= 14269
 R27: 477 C0 + 842 C1 + 230 C2 + 436 C3 + 473 C4 + 756 C5 + 998 C6 + 195 C7
   + 103 C8 + 690 C9 + 733 C10 + 540 C11 + 656 C12 + 412 C13 + 423 C14
   + 49 C15 + 253 C16 + 237 C17 + 560 C18 + 160 C19 + 379 C20 + 806 C21
   + 376 C22 + 447 C23 + 217 C24 + 834 C25 + 649 C26 + 688 C27 + 657 C28
   + 215 C29 + 950 C30 + 76 C31 + 264 C32 + 58 C33 + 123 C34 + 561 C35
   + 214 C36 + 463 C37 + 588 C38 + 275 C39 + 252 C40 + 211 C41 + 183 C42
   + 516 C43 + 313 C44 + 49 C45 + 577 C46 + 611 C47 + 986 C48 + 238 C49
   + 602 C50 + 125 C51 + 645 C52 + 414 C53 + 992 C54 + 71 C55 + 636 C56
   + 35 C57 + 187 C58 + 398 C59 + 738 C60 + 961 C61 + 997 C62 + 301 C63
   + 367 C64 + 98 C65 + 624 C66 + 820 C67 + 115 C68 + 434 C69 + 69 C70
   + 216 C71 + 796 C72 + 785 C73 + 904 C74 + 63 C75 + 47 C76 + 892 C77
   + 868 C78 + 280 C79 + 504 C80 + 708 C81 + 48 C82 + 532 C83 + 291 C84
   + 217 C85 + 342 C86 + 455 C87 + 302 C88 + 718 C89 + 112 C90 + 957 C91
   + 644 C92 + 732 C93 + 337 C94 + 452 C95 + 778 C96 + 26 C97 + 948 C98
   + 437 C99 <= 12704
 R28: 191 C0 + 516 C1 + 272 C2 + 562 C3 + 302 C4 + 695 C5 + 22 C6 + 383 C7
   + 739 C8 + 605 C9 + 328 C10 + 16 C11 + 527 C12 + 413 C13 + 977 C14
   + 670 C15 + 635 C16 + 112 C17 + 468 C18 + 16 C19 + 662 C20 + 323 C21
   + 262 C22 + 243 C23 + 175 C24 + 160 C25 + 594 C26 + 978 C27 + 945 C28
   + 923 C29 + 808 C30 + 996 C31 + 66 C32 + 421 C33 + 213 C34 + 369 C35
   + 330 C36 + 467 C37 + 930 C38 + 338 C39 + 875 C40 + 323 C41 + 172 C42
   + 754 C43 + 229 C44 + 515 C45 + 502 C46 + 417 C47 + 71 C48 + 162 C49
   + 288 C50 + 682 C51 + 316 C52 + 539 C53 + 813 C54 + 801 C55 + 971 C56
   + 582 C57 + 736 C58 + 303 C59 + 5 C60 + 421 C61 + 716 C62 + 905 C63
   + 900 C64 + 30 C65 + 486 C66 + 900 C67 + 56 C68 + 485 C69 + 515 C70
   + 313 C71 + 249 C72 + 46 C73 + 657 C74 + 640 C75 + 244 C76 + 118 C77
   + 998 C78 + 245 C79 + 293 C80 + 64 C81 + 371 C82 + 53 C83 + 857 C84
   + 374 C85 + 135 C86 + 464 C87 + 976 C88 + 197 C89 + 682 C90 + 595 C91
   + 317 C92 + 166 C93 + 144 C94 + 236 C95 + 461 C96 + 622 C97 + 865 C98
   + 629 C99 <= 12734
 R29: 953 C0 + 381 C1 + 930 C2 + 124 C3 + 188 C4 + 479 C5 + 526 C6 + 97 C7
   + 354 C8 + 413 C9 + 339 C10 + 756 C11 + 607 C12 + 216 C13 + 932 C14
   + 241 C15 + 795 C16 + 619 C17 + 162 C18 + 422 C19 + 207 C20 + 677 C21
   + 161 C22 + 230 C23 + 160 C24 + 361 C25 + 595 C26 + 581 C27 + 286 C28
   + 950 C29 + 471 C30 + 538 C31 + 107 C32 + 340 C33 + 591 C34 + 107 C35
   + 396 C36 + 190 C37 + 565 C38 + 220 C39 + 569 C40 + 608 C41 + 659 C42
   + 141 C43 + 621 C44 + 653 C45 + 764 C46 + 102 C47 + 100 C48 + 314 C49
   + 790 C50 + 996 C51 + 751 C52 + 559 C53 + 548 C54 + 792 C55 + 736 C56
   + 755 C57 + 838 C58 + 964 C59 + 54 C60 + 861 C61 + 71 C62 + 589 C63
   + 64 C64 + 562 C65 + 642 C66 + 30 C67 + 113 C68 + 217 C69 + 508 C70
   + 619 C71 + 121 C72 + 232 C73 + 823 C74 + 416 C75 + 709 C76 + 109 C77
   + 611 C78 + 164 C79 + 659 C80 + 124 C81 + 949 C82 + 330 C83 + 768 C84
   + 315 C85 + 405 C86 + 145 C87 + 5 C88 + 350 C89 + 136 C90 + 465 C91
   + 677 C92 + 907 C93 + 83 C94 + 412 C95 + 359 C96 + 566 C97 + 794 C98
   + 717 C99 <= 11667
 R30: 556 C0 + 111 C1 + 163 C2 + 457 C3 + 614 C4 + 182 C5 + 896 C6 + 226 C7
   + 575 C8 + 580 C9 + 739 C10 + 666 C11 + 841 C12 + 714 C13 + 141 C14
   + 765 C15 + 208 C16 + 184 C17 + 332 C18 + 55 C19 + 171 C20 + 378 C21
   + 275 C22 + 731 C23 + 15 C24 + 807 C25 + 974 C26 + 938 C27 + 59 C28
   + 627 C29 + 629 C30 + 788 C31 + 573 C32 + 38 C33 + 533 C34 + 205 C35
   + 523 C36 + 887 C37 + 103 C38 + 985 C39 + 511 C40 + 688 C41 + 731 C42
   + 939 C43 + 713 C44 + 43 C45 + 303 C46 + 577 C47 + 768 C48 + 199 C49
   + 644 C50 + 631 C51 + 987 C52 + 415 C53 + 860 C54 + 915 C55 + 719 C56
   + 663 C57 + 471 C58 + 911 C59 + 373 C60 + 412 C61 + 273 C62 + 643 C63
   + 755 C64 + 146 C65 + 90 C66 + 67 C67 + 405 C68 + 591 C69 + 505 C70
   + 532 C71 + 539 C72 + 394 C73 + 462 C74 + 641 C75 + 554 C76 + 585 C77
   + 956 C78 + 585 C79 + 130 C80 + 660 C81 + 237 C82 + 62 C83 + 699 C84
   + 360 C85 + 716 C86 + 113 C87 + 636 C88 + 838 C89 + 34 C90 + 907 C91
   + 361 C92 + 629 C93 + 405 C94 + 174 C95 + 187 C96 + 483 C97 + 868 C98
   + 934 C99 >= 12718
 R31: 413 C0 + 63 C1 + 111 C2 + 312 C3 + 888 C4 + 650 C5 + 111 C6 + 279 C7
   + 890 C8 + 995 C9 + 81 C10 + 989 C11 + 623 C12 + 449 C13 + 486 C14
   + 398 C15 + 153 C16 + 598 C17 + 253 C18 + 842 C19 + 189 C20 + 540 C21
   + 608 C22 + 638 C23 + 60 C24 + 75 C25 + 687 C26 + 476 C27 + 350 C28
   + 409 C29 + 463 C30 + 989 C31 + 959 C32 + 968 C33 + 650 C34 + 603 C35
   + 879 C36 + 960 C37 + 21 C38 + 729 C39 + 92 C40 + 56 C41 + 63 C42
   + 109 C43 + 914 C44 + 888 C45 + 679 C46 + 413 C47 + 568 C48 + 871 C49
   + 28 C50 + 57 C51 + 216 C52 + 795 C53 + 356 C54 + 536 C55 + 91 C56
   + 21 C57 + 994 C58 + 334 C59 + 300 C60 + 470 C61 + 326 C62 + 837 C63
   + 292 C64 + 783 C65 + 641 C66 + 505 C67 + 292 C68 + 123 C69 + 605 C70
   + 72 C71 + 21 C72 + 463 C73 + 393 C74 + 428 C75 + 911 C76 + 729 C77
   + 612 C78 + 731 C79 + 247 C80 + 960 C81 + 793 C82 + 938 C83 + 192 C84
   + 78 C85 + 145 C86 + 655 C87 + 286 C88 + 748 C89 + 479 C90 + 605 C91
   + 614 C92 + 551 C93 + 357 C94 + 598 C95 + 605 C96 + 793 C97 + 939 C98
   + 742 C99 >= 11364
 R32: 907 C0 + 75 C1 + 488 C2 + 485 C3 + 227 C4 + 292 C5 + 519 C6 + 362 C7
   + 618 C8 + 499 C9 + 876 C10 + 360 C11 + 6 C12 + 906 C13 + 220 C14
   + 897 C15 + 566 C16 + 96 C17 + 10 C18 + 504 C19 + 93 C20 + 274 C21
   + 568 C22 + 413 C23 + 863 C24 + 185 C25 + 783 C26 + 325 C27 + 881 C28
   + 866 C29 + 138 C30 + 608 C31 + 690 C32 + 431 C33 + 432 C34 + 930 C35
   + 851 C36 + 174 C37 + 457 C38 + 650 C39 + 104 C40 + 927 C41 + 944 C42
   + 454 C43 + 338 C44 + 381 C45 + 70 C46 + 484 C47 + 172 C48 + 922 C49
   + 752 C50 + 869 C51 + 816 C52 + 976 C53 + 177 C54 + 759 C55 + 105 C56
   + 849 C57 + 904 C58 + 958 C59 + 631 C60 + 251 C61 + 651 C62 + 113 C63
   + 101 C64 + 653 C65 + 645 C66 + 57 C67 + 272 C68 + 945 C69 + 692 C70
   + 5 C71 + 814 C72 + 665 C73 + 757 C74 + 193 C75 + 266 C76 + 984 C77
   + 363 C78 + 38 C79 + 52 C80 + 565 C81 + 327 C82 + 974 C83 + 581 C84
   + 88 C85 + 778 C86 + 804 C87 + 244 C88 + 961 C89 + 253 C90 + 299 C91
   + 684 C92 + 676 C93 + 11 C94 + 715 C95 + 381 C96 + 847 C97 + 271 C98
   + 7 C99 >= 12525
 R33: 547 C0 + 859 C1 + 25 C2 + 285 C3 + 674 C4 + 829 C5 + 878 C6 + 49 C7
   + 145 C8 + 915 C9 + 532 C10 + 824 C11 + 153 C12 + 820 C13 + 370 C14
   + 13 C15 + 462 C16 + 582 C17 + 25 C18 + 209 C19 + 768 C20 + 292 C21
   + 915 C22 + 754 C23 + 48 C24 + 519 C25 + 295 C26 + 751 C27 + 579 C28
   + 468 C29 + 576 C30 + 90 C31 + 523 C32 + 313 C33 + 525 C34 + 286 C35
   + 564 C36 + 738 C37 + 961 C38 + 167 C39 + 445 C40 + 339 C41 + 634 C42
   + 564 C43 + 95 C44 + 694 C45 + 100 C46 + 967 C47 + 679 C48 + 594 C49
   + 467 C50 + 935 C51 + 880 C52 + 366 C53 + 71 C54 + 580 C55 + 354 C56
   + 173 C57 + 340 C58 + 176 C59 + 446 C60 + 871 C61 + 20 C62 + 694 C63
   + 305 C64 + 25 C65 + 487 C66 + 229 C67 + 895 C68 + 138 C69 + 249 C70
   + 752 C71 + 216 C72 + 316 C73 + 149 C74 + 449 C75 + 558 C76 + 144 C77
   + 960 C78 + 51 C79 + 614 C80 + 750 C81 + 526 C82 + 499 C83 + 957 C84
   + 614 C85 + 700 C86 + 760 C87 + 525 C88 + 118 C89 + 15 C90 + 3 C91
   + 307 C92 + 338 C93 + 896 C94 + 833 C95 + 618 C96 + 214 C97 + 665 C98
   + 663 C99 >= 10919
 R34: 599 C0 + 599 C1 + 359 C2 + 58 C3 + 318 C4 + 462 C5 + 464 C6 + 323 C7
   + 702 C8 + 675 C9 + 29 C10 + 314 C11 + 451 C12 + 178 C13 + 580 C14
   + 508 C15 + 87 C16 + 7 C17 + 984 C18 + 971 C19 + 122 C20 + 108 C21
   + 64 C22 + 705 C23 + 387 C24 + 756 C25 + 505 C26 + 91 C27 + 667 C28
   + 85 C29 + 218 C30 + 253 C31 + 966 C32 + 979 C33 + 569 C34 + 676 C35
   + 923 C36 + 570 C37 + 38 C38 + 903 C39 + 54 C40 + 414 C41 + 875 C42
   + 651 C43 + 938 C44 + 914 C45 + 761 C46 + 92 C47 + 205 C48 + 702 C49
   + 707 C50 + 387 C51 + 183 C52 + 14 C53 + 306 C54 + 279 C55 + 316 C56
   + 537 C57 + 600 C58 + 2 C59 + 430 C60 + 624 C61 + 235 C62 + 929 C63
   + 933 C64 + 612 C65 + 285 C66 + 735 C67 + 499 C68 + 544 C69 + 631 C70
   + 433 C71 + 413 C72 + 805 C73 + 514 C74 + 723 C75 + 788 C76 + 490 C77
   + 870 C78 + 342 C79 + 900 C80 + 797 C81 + 82 C82 + 532 C83 + 229 C84
   + 706 C85 + 182 C86 + 927 C87 + 765 C88 + 34 C89 + 625 C90 + 814 C91
   + 780 C92 + 203 C93 + 967 C94 + 46 C95 + 519 C96 + 457 C97 + 354 C98
   + 432 C99 >= 12344
 R35: 125 C0 + 16 C1 + 938 C2 + 816 C3 + 161 C4 + 934 C5 + 350 C6 + 356 C7
   + 987 C8 + 920 C9 + 622 C10 + 546 C11 + 795 C12 + 645 C13 + 544 C14
   + 128 C15 + 223 C16 + 738 C17 + 588 C18 + 434 C19 + 219 C20 + 354 C21
   + 83 C22 + 474 C23 + 344 C24 + 494 C25 + 735 C26 + 983 C27 + 890 C28
   + 59 C29 + 35 C30 + 62 C31 + 895 C32 + 231 C33 + 231 C34 + 748 C35
   + 458 C36 + 85 C37 + 826 C38 + 550 C39 + 968 C40 + 715 C41 + 469 C42
   + 280 C43 + 493 C44 + 179 C45 + 433 C46 + 210 C47 + 209 C48 + 530 C49
   + 96 C50 + 212 C51 + 427 C52 + 811 C53 + 117 C54 + 348 C55 + 797 C56
   + 693 C57 + 901 C58 + 41 C59 + 191 C60 + 874 C61 + 466 C62 + 461 C63
   + 359 C64 + 165 C65 + 458 C66 + 114 C67 + 999 C68 + 89 C69 + 465 C70
   + 169 C71 + 515 C72 + 396 C73 + 820 C74 + 882 C75 + 207 C76 + 862 C77
   + 658 C78 + 803 C79 + 986 C80 + 384 C81 + 569 C82 + 80 C83 + 57 C84
   + 142 C85 + 194 C86 + 663 C87 + 341 C88 + 617 C89 + 203 C90 + 468 C91
   + 282 C92 + 691 C93 + 391 C94 + 355 C95 + 911 C96 + 597 C97 + 987 C98
   + 942 C99 >= 11267
 R36: 794 C0 + 962 C1 + 559 C2 + 323 C3 + 634 C4 + 265 C5 + 707 C6 + 775 C7
   + 776 C8 + 248 C9 + 253 C10 + 781 C11 + 833 C12 + 654 C13 + 881 C14
   + 335 C15 + 945 C16 + 892 C17 + 683 C18 + 417 C19 + 55 C20 + 945 C21
   + 624 C22 + 67 C23 + 667 C24 + 371 C25 + 556 C26 + 676 C27 + 355 C28
   + 260 C29 + 272 C30 + 463 C31 + 24 C32 + 361 C33 + 26 C34 + 708 C35
   + 862 C36 + 355 C37 + 100 C38 + 314 C39 + 862 C40 + 237 C41 + 777 C42
   + 757 C43 + 236 C44 + 190 C45 + 602 C46 + 665 C47 + 11 C48 + 565 C49
   + 899 C50 + 109 C51 + 798 C52 + 568 C53 + 897 C54 + 399 C55 + 686 C56
   + 325 C57 + 783 C58 + 527 C59 + 629 C60 + 918 C61 + 230 C62 + 711 C63
   + 314 C64 + 268 C65 + 97 C66 + 52 C67 + 524 C68 + 494 C69 + 558 C70
   + 927 C71 + 776 C72 + 52 C73 + 755 C74 + 266 C75 + 297 C76 + 252 C77
   + 276 C78 + 527 C79 + 142 C80 + 748 C81 + 321 C82 + 871 C83 + 720 C84
   + 341 C85 + 28 C86 + 559 C87 + 825 C88 + 307 C89 + 711 C90 + 842 C91
   + 839 C92 + 878 C93 + 516 C94 + 204 C95 + 873 C96 + 42 C97 + 663 C98
   + 780 C99 >= 11708
 R37: 447 C0 + 682 C1 + 649 C2 + 672 C3 + 673 C4 + 522 C5 + 987 C6 + 818 C7
   + 781 C8 + 695 C9 + 260 C10 + 630 C11 + 331 C12 + 346 C13 + 255 C14
   + 727 C15 + 738 C16 + 691 C17 + 49 C18 + 494 C19 + 877 C20 + 448 C21
   + 306 C22 + 563 C23 + 992 C24 + 981 C25 + 895 C26 + 205 C27 + 267 C28
   + 893 C29 + 271 C30 + 313 C31 + 495 C32 + 375 C33 + 758 C34 + 148 C35
   + 749 C36 + 841 C37 + 627 C38 + 8 C39 + 258 C40 + 799 C41 + 127 C42
   + 863 C43 + 869 C44 + 558 C45 + 777 C46 + 34 C47 + 795 C48 + 983 C49
   + 508 C50 + 683 C51 + 314 C52 + 442 C53 + 31 C54 + 805 C55 + 378 C56
   + 692 C57 + 991 C58 + 482 C59 + 56 C60 + 302 C61 + 81 C62 + 938 C63
   + 929 C64 + 674 C65 + 764 C66 + 806 C67 + 929 C68 + 919 C69 + 421 C70
   + 537 C71 + 463 C72 + 382 C73 + 625 C74 + 845 C75 + 537 C76 + 686 C77
   + 522 C78 + 28 C79 + 568 C80 + 350 C81 + 810 C82 + 128 C83 + 792 C84
   + 575 C85 + 687 C86 + 742 C87 + 812 C88 + 346 C89 + 702 C90 + 96 C91
   + 291 C92 + 482 C93 + 279 C94 + 911 C95 + 412 C96 + 934 C97 + 301 C98
   + 791 C99 >= 14075
 R38: 399 C0 + 960 C1 + 197 C2 + 422 C3 + 379 C4 + 154 C5 + 160 C6 + 368 C7
   + 319 C8 + 905 C9 + 334 C10 + 253 C11 + 725 C12 + 111 C13 + 449 C14
   + 689 C15 + 630 C16 + 728 C17 + 187 C18 + 957 C19 + 220 C20 + 308 C21
   + 34 C22 + 444 C23 + 378 C24 + 209 C25 + 655 C26 + 14 C27 + 339 C28
   + 128 C29 + 285 C30 + 582 C31 + 883 C32 + 63 C33 + 445 C34 + 908 C35
   + 975 C36 + 291 C37 + 190 C38 + 522 C39 + 81 C40 + 314 C41 + 344 C42
   + 790 C43 + 482 C44 + 798 C45 + 73 C46 + 604 C47 + 112 C48 + 42 C49
   + 114 C50 + 692 C51 + 707 C52 + 137 C53 + 683 C54 + 926 C55 + 957 C56
   + 474 C57 + 735 C58 + 360 C59 + 230 C60 + 406 C61 + 189 C62 + 980 C63
   + 285 C64 + 284 C65 + 617 C66 + 492 C67 + 862 C68 + 236 C69 + 914 C70
   + 607 C71 + 873 C72 + 707 C73 + 189 C74 + 359 C75 + 862 C76 + 173 C77
   + 647 C78 + 469 C79 + 464 C80 + 240 C81 + 377 C82 + 229 C83 + 39 C84
   + 14 C85 + 771 C86 + 443 C87 + 782 C88 + 559 C89 + 47 C90 + 17 C91
   + 421 C92 + 280 C93 + 768 C94 + 898 C95 + 63 C96 + 141 C97 + 927 C98
   + 495 C99 >= 11245
 R39: 63 C0 + 374 C1 + 675 C2 + 523 C3 + 593 C4 + 502 C5 + 105 C6 + 14 C7
   + 454 C8 + 787 C9 + 81 C10 + 180 C11 + 434 C12 + 354 C13 + 97 C14
   + 988 C15 + 107 C16 + 605 C17 + 519 C18 + 419 C19 + 664 C20 + 305 C21
   + 554 C22 + 986 C23 + 925 C24 + 82 C25 + 458 C26 + 76 C27 + 546 C28
   + 764 C29 + 38 C30 + 762 C31 + 269 C32 + 357 C33 + 778 C34 + 881 C35
   + 169 C36 + 13 C37 + 124 C38 + 746 C39 + 182 C40 + 447 C41 + 750 C42
   + 249 C43 + 95 C44 + 381 C45 + 832 C46 + 394 C47 + 10 C48 + 646 C49
   + 107 C50 + 235 C51 + 326 C52 + 636 C53 + 558 C54 + 329 C55 + 753 C56
   + 616 C57 + 298 C58 + 288 C59 + 490 C60 + 209 C61 + 713 C62 + 884 C63
   + 955 C64 + 798 C65 + 54 C66 + 722 C67 + 353 C68 + 612 C69 + 485 C70
   + 697 C71 + 291 C72 + 723 C73 + 257 C74 + 632 C75 + 215 C76 + 902 C77
   + 122 C78 + 32 C79 + 719 C80 + 938 C81 + 741 C82 + 420 C83 + 615 C84
   + 339 C85 + 254 C86 + 245 C87 + 324 C88 + 766 C89 + 555 C90 + 740 C91
   + 680 C92 + 526 C93 + 447 C94 + 149 C95 + 684 C96 + 399 C97 + 478 C98
   + 543 C99 >= 11553
 R40: 736 C0 + 704 C1 + 315 C2 + 357 C3 + 60 C4 + 129 C5 + 178 C6 + 404 C7
   + 340 C8 + 425 C9 + 473 C10 + 630 C11 + 2 C12 + 855 C13 + 847 C14
   + 10 C15 + 981 C16 + 124 C17 + 634 C18 + 396 C19 + 310 C20 + 600 C21
   + 601 C22 + 166 C23 + 230 C24 + 420 C25 + 991 C26 + 792 C27 + 991 C28
   + 328 C29 + 510 C30 + 73 C31 + 783 C32 + 700 C33 + 681 C34 + 855 C35
   + 311 C36 + 130 C37 + 110 C38 + 69 C39 + 331 C40 + 307 C41 + 797 C42
   + 813 C43 + 335 C44 + 335 C45 + 288 C46 + 626 C47 + 693 C48 + 304 C49
   + 258 C50 + 924 C51 + 221 C52 + 19 C53 + 357 C54 + 242 C55 + 793 C56
   + 152 C57 + 614 C58 + 868 C59 + 665 C60 + 254 C61 + 281 C62 + 781 C63
   + 271 C64 + 670 C65 + 63 C66 + 555 C67 + 178 C68 + 723 C69 + 178 C70
   + 72 C71 + 892 C72 + 778 C73 + 470 C75 + 141 C76 + 345 C77 + 560 C78
   + 222 C79 + 236 C80 + 637 C81 + 406 C82 + 512 C83 + 714 C84 + 433 C85
   + 413 C86 + 490 C87 + 210 C88 + 699 C89 + 953 C90 + 776 C91 + 537 C92
   + 713 C93 + 479 C94 + 928 C95 + 692 C96 + 329 C97 + 967 C98 + 412 C99
   >= 11325
 R41: 494 C0 + 799 C1 + 889 C2 + 153 C3 + 424 C4 + 711 C5 + 774 C6 + 191 C7
   + 484 C8 + 718 C9 + 879 C10 + 678 C11 + 986 C12 + 458 C13 + 726 C14
   + 624 C15 + 272 C16 + 392 C17 + 691 C18 + 414 C19 + 41 C20 + 227 C21
   + 125 C22 + 256 C23 + 673 C24 + 495 C25 + 438 C26 + 101 C27 + 733 C28
   + 956 C29 + 265 C30 + 616 C31 + 842 C32 + 551 C33 + 952 C34 + 222 C35
   + 770 C36 + 485 C37 + 581 C38 + 143 C39 + 355 C40 + 862 C41 + 27 C42
   + 303 C43 + 633 C44 + 903 C45 + 125 C46 + 79 C47 + 96 C48 + 597 C49
   + 91 C50 + 832 C51 + 113 C52 + 103 C53 + 671 C54 + 560 C55 + 549 C56
   + 893 C57 + 111 C58 + 422 C59 + 995 C60 + 198 C61 + 794 C62 + 922 C63
   + 616 C64 + 814 C65 + 555 C66 + 64 C67 + 465 C68 + 713 C69 + 554 C70
   + 664 C71 + 676 C72 + 71 C73 + 896 C74 + 793 C75 + 609 C76 + 483 C77
   + 543 C78 + 575 C79 + 839 C80 + 667 C81 + 557 C82 + 348 C83 + 370 C84
   + 519 C85 + 770 C86 + 72 C87 + 873 C88 + 7 C89 + 231 C90 + 670 C91
   + 84 C92 + 145 C93 + 358 C94 + 569 C95 + 331 C96 + 706 C97 + 388 C98
   + 10 C99 >= 12517
 R42: 158 C0 + 936 C1 + 475 C2 + 254 C3 + 888 C4 + 717 C5 + 937 C6 + 998 C7
   + 944 C8 + 231 C9 + 938 C10 + 46 C11 + 24 C12 + 104 C13 + 122 C14
   + 782 C15 + 733 C16 + 589 C17 + 976 C18 + 635 C19 + 470 C20 + 418 C21
   + 160 C22 + 458 C23 + 885 C24 + 117 C25 + 820 C26 + 82 C27 + 842 C28
   + 461 C29 + 492 C30 + 240 C31 + 255 C32 + 815 C33 + 844 C34 + 90 C35
   + 868 C36 + 669 C37 + 171 C38 + 719 C39 + 906 C40 + 578 C41 + 105 C42
   + 791 C43 + 113 C44 + 30 C45 + 237 C46 + 114 C47 + 514 C48 + 198 C49
   + 488 C50 + 294 C51 + 264 C52 + 216 C53 + 704 C54 + 986 C55 + 235 C56
   + 767 C57 + 365 C58 + 483 C59 + 504 C60 + 764 C61 + 488 C62 + 479 C63
   + 653 C64 + 518 C65 + 761 C66 + 30 C67 + 571 C68 + 907 C69 + 787 C70
   + 778 C71 + 611 C72 + 921 C73 + 806 C74 + 599 C75 + 540 C76 + 332 C77
   + 956 C78 + 400 C79 + 827 C80 + 518 C81 + 797 C82 + 837 C83 + 7 C84
   + 341 C85 + 961 C86 + 945 C87 + 766 C88 + 162 C89 + 165 C90 + 392 C91
   + 793 C92 + 569 C93 + 941 C94 + 486 C95 + 526 C96 + 668 C97 + 927 C98
   + 584 C99 >= 13592
 R43: 669 C0 + 509 C1 + 264 C2 + 802 C3 + 733 C4 + 902 C5 + 900 C6 + 156 C7
   + 303 C8 + 684 C9 + 601 C10 + 606 C11 + 701 C12 + 770 C13 + 378 C14
   + 385 C15 + 91 C16 + 683 C17 + 95 C18 + 99 C19 + 187 C20 + 163 C21
   + 856 C22 + 168 C23 + 478 C24 + 990 C25 + 913 C26 + 553 C27 + 190 C28
   + 570 C29 + 147 C30 + 997 C31 + 866 C32 + 497 C33 + 666 C34 + 94 C35
   + 249 C36 + 241 C37 + 661 C38 + 913 C39 + 921 C40 + 779 C41 + 716 C42
   + 236 C43 + 233 C44 + 336 C45 + 997 C46 + 443 C47 + 131 C48 + 6 C49
   + 515 C50 + 173 C51 + 853 C52 + 232 C53 + 411 C54 + 326 C55 + 293 C56
   + 244 C57 + 285 C58 + 308 C59 + 180 C60 + 423 C61 + 826 C62 + 559 C63
   + 806 C64 + 890 C65 + 712 C66 + 833 C67 + 112 C68 + 149 C69 + 370 C70
   + 323 C71 + 396 C72 + 986 C73 + 75 C74 + 268 C75 + 914 C76 + 18 C77
   + 303 C78 + 388 C79 + 50 C80 + 16 C81 + 389 C82 + 4 C83 + 262 C84
   + 320 C85 + 599 C86 + 149 C87 + 599 C88 + 63 C89 + 65 C90 + 875 C91
   + 910 C92 + 513 C93 + 658 C94 + 529 C95 + 553 C96 + 225 C97 + 878 C98
   + 438 C99 >= 11699
 R44: 627 C0 + 472 C1 + 87 C2 + 885 C3 + 647 C4 + 572 C5 + 533 C6 + 581 C7
   + 251 C8 + 970 C9 + 430 C10 + 877 C11 + 494 C12 + 251 C13 + 80 C14
   + 748 C15 + 658 C16 + 904 C17 + 726 C18 + 875 C19 + 792 C20 + 153 C21
   + 720 C22 + 478 C23 + 960 C24 + 824 C25 + 976 C26 + 573 C27 + 424 C28
   + 906 C29 + 989 C30 + 265 C31 + 934 C32 + 421 C33 + 590 C34 + 691 C35
   + 803 C36 + 59 C37 + 719 C38 + 579 C39 + 599 C40 + 576 C41 + 989 C42
   + 234 C43 + 438 C44 + 160 C45 + 733 C46 + 885 C47 + 401 C48 + 16 C49
   + 314 C50 + 809 C51 + 35 C52 + 169 C53 + 307 C54 + 455 C55 + 852 C56
   + 558 C57 + 884 C58 + 54 C59 + 903 C60 + 992 C61 + 443 C62 + 541 C63
   + 275 C64 + 189 C65 + 398 C66 + 851 C67 + 596 C68 + 198 C69 + 543 C70
   + 498 C71 + 617 C72 + 207 C73 + 627 C74 + 214 C75 + 94 C76 + 267 C77
   + 550 C78 + 840 C79 + 147 C80 + 674 C81 + 788 C82 + 350 C83 + 991 C84
   + 491 C85 + 878 C86 + 818 C87 + 591 C88 + 552 C89 + 45 C90 + 645 C91
   + 595 C92 + 141 C93 + 615 C94 + 594 C95 + 388 C96 + 627 C97 + 730 C98
   + 534 C99 >= 12437
 R45: 557 C0 + 952 C1 + 949 C2 + 495 C3 + 382 C4 + 542 C5 + 557 C6 + 79 C7
   + 794 C8 + 170 C9 + 789 C10 + 997 C11 + 522 C12 + 396 C13 + 263 C14
   + 973 C15 + 143 C16 + 139 C17 + 484 C18 + 61 C19 + 569 C20 + 237 C21
   + 167 C22 + 795 C23 + 395 C24 + 501 C25 + 748 C26 + 430 C27 + 810 C28
   + 386 C29 + 143 C30 + 720 C31 + 909 C32 + 155 C33 + 540 C34 + 420 C35
   + 678 C36 + 679 C37 + 314 C38 + 536 C39 + 132 C40 + 849 C41 + 327 C42
   + 893 C43 + 853 C44 + 607 C45 + 766 C46 + 722 C47 + 238 C48 + 294 C49
   + 782 C50 + 989 C51 + 172 C52 + 478 C53 + 840 C54 + 554 C55 + 839 C56
   + 554 C57 + 270 C58 + 394 C59 + 846 C60 + 189 C61 + 108 C62 + 488 C63
   + 744 C64 + 221 C65 + 467 C66 + 44 C67 + 239 C68 + 111 C69 + 502 C70
   + 251 C71 + 775 C72 + 359 C73 + 576 C74 + 412 C75 + 312 C76 + 973 C77
   + 234 C78 + 832 C79 + 902 C80 + 406 C81 + 253 C82 + 172 C83 + 10 C84
   + 736 C85 + 246 C86 + 553 C87 + 51 C88 + 35 C89 + 812 C90 + 366 C91
   + 119 C92 + 147 C93 + 993 C94 + 932 C95 + 195 C96 + 910 C97 + 83 C98
   + 541 C99 >= 11783
 R46: 821 C0 + 242 C1 + 595 C2 + 888 C3 + 365 C4 + 204 C5 + 138 C6 + 217 C7
   + 655 C8 + 321 C9 + 540 C10 + 787 C11 + 141 C12 + 675 C13 + 386 C14
   + 283 C15 + 849 C16 + 509 C17 + 744 C18 + 173 C19 + 462 C20 + 969 C21
   + 70 C22 + 938 C23 + 374 C24 + 404 C25 + 709 C26 + 757 C27 + 102 C28
   + 299 C29 + 312 C30 + 361 C31 + 19 C32 + 227 C33 + 300 C34 + 229 C35
   + 289 C36 + 567 C37 + 609 C38 + 984 C39 + 228 C40 + 335 C41 + 36 C42
   + 992 C43 + 557 C44 + 564 C45 + 982 C46 + 73 C47 + 418 C48 + 981 C49
   + 370 C50 + 560 C51 + 970 C52 + 816 C53 + 236 C54 + 47 C55 + 401 C56
   + 224 C57 + 687 C58 + 605 C59 + 139 C60 + 565 C61 + 408 C62 + 837 C63
   + 819 C64 + 680 C65 + 667 C66 + 289 C67 + 321 C68 + 60 C69 + 38 C70
   + 610 C71 + 474 C72 + 774 C73 + 889 C74 + 434 C75 + 66 C76 + 753 C77
   + 751 C78 + 999 C79 + 194 C80 + 496 C81 + 894 C82 + 539 C83 + 740 C84
   + 598 C85 + 246 C86 + 35 C87 + 854 C88 + 98 C89 + 260 C90 + 275 C91
   + 653 C92 + 640 C93 + 220 C94 + 300 C95 + 602 C96 + 228 C97 + 497 C98
   + 611 C99 >= 12037
 R47: 840 C0 + 933 C1 + 88 C2 + 171 C3 + 176 C4 + 592 C5 + 12 C6 + 654 C7
   + 499 C8 + 776 C9 + 643 C10 + 555 C11 + 328 C12 + 415 C13 + 51 C14
   + 113 C15 + 891 C16 + 157 C17 + 95 C18 + 702 C19 + 946 C20 + 337 C21
   + 713 C22 + 397 C23 + 443 C24 + 937 C25 + 302 C26 + 977 C27 + 802 C28
   + 838 C29 + 684 C30 + 471 C31 + 810 C32 + 67 C33 + 4 C34 + 531 C35
   + 744 C36 + 709 C37 + 424 C38 + 254 C39 + 121 C40 + 201 C41 + 32 C42
   + 403 C43 + 89 C44 + 432 C45 + 485 C46 + 885 C47 + 476 C48 + 326 C49
   + 148 C50 + 257 C51 + 457 C52 + 299 C53 + 255 C54 + 687 C55 + 155 C56
   + 289 C57 + 803 C58 + 693 C59 + 406 C60 + 346 C61 + 643 C62 + 793 C63
   + 23 C64 + 264 C65 + 615 C66 + 201 C67 + 577 C68 + 768 C69 + 396 C70
   + 363 C71 + 538 C72 + 579 C73 + 982 C74 + 280 C75 + 951 C76 + 524 C77
   + 178 C78 + 912 C79 + 331 C80 + 638 C81 + 147 C82 + 524 C83 + 19 C84
   + 970 C85 + 526 C86 + 373 C87 + 28 C88 + 623 C89 + 428 C90 + 175 C91
   + 129 C92 + 295 C93 + 70 C94 + 890 C95 + 595 C96 + 214 C97 + 217 C98
   + 473 C99 >= 10726
 R48: 818 C0 + 365 C1 + 678 C2 + 200 C3 + 455 C4 + 240 C5 + 594 C6 + 68 C7
   + 423 C8 + 562 C9 + 729 C10 + 618 C11 + 451 C12 + 205 C13 + 633 C14
   + 319 C15 + 525 C16 + 915 C17 + 523 C18 + 626 C19 + 283 C20 + 786 C21
   + 879 C22 + 828 C23 + 280 C24 + 623 C25 + 854 C26 + 461 C27 + 516 C28
   + 309 C29 + 597 C30 + 429 C31 + 657 C32 + 967 C33 + 978 C34 + 137 C35
   + 863 C36 + 573 C37 + 990 C38 + 518 C39 + 676 C40 + 16 C41 + 410 C42
   + 919 C43 + 372 C44 + 852 C45 + 318 C46 + 971 C47 + 687 C48 + 989 C49
   + 32 C50 + 885 C51 + 40 C52 + 753 C53 + 313 C54 + 20 C55 + 921 C56
   + 790 C57 + 807 C58 + 298 C59 + 929 C60 + 919 C61 + 867 C62 + 990 C63
   + 275 C64 + 262 C65 + 233 C66 + 44 C67 + 294 C68 + 790 C69 + 990 C70
   + 786 C71 + 443 C72 + 733 C73 + 980 C74 + 441 C75 + 948 C76 + 995 C77
   + 123 C78 + 351 C79 + 394 C80 + 535 C81 + 802 C82 + 140 C83 + 182 C84
   + 59 C85 + 24 C86 + 761 C87 + 211 C88 + 863 C89 + 231 C90 + 636 C91
   + 607 C92 + 188 C93 + 809 C94 + 545 C95 + 221 C96 + 668 C97 + 631 C98
   + 444 C99 >= 13722
 R49: 495 C0 + 554 C1 + 563 C2 + 946 C3 + 299 C4 + 556 C5 + 83 C6 + 291 C7
   + 385 C8 + 822 C9 + 957 C10 + 28 C11 + 849 C12 + 72 C13 + 821 C14
   + 542 C15 + 636 C16 + 430 C17 + 815 C18 + 335 C19 + 462 C20 + 428 C21
   + 618 C22 + 400 C23 + 838 C24 + 368 C25 + 70 C26 + 664 C27 + 891 C28
   + 368 C29 + 312 C30 + 731 C31 + 932 C32 + 992 C33 + 872 C34 + 728 C35
   + 896 C36 + 202 C37 + 660 C38 + 69 C39 + 740 C40 + 960 C41 + 780 C42
   + 176 C43 + 582 C44 + 376 C45 + 408 C46 + 186 C47 + 965 C48 + 171 C49
   + 815 C50 + 180 C51 + 652 C52 + 629 C53 + 427 C54 + 20 C55 + 776 C56
   + 635 C57 + 482 C58 + 626 C59 + 876 C60 + 102 C61 + 359 C62 + 61 C63
   + 100 C64 + 563 C65 + 430 C66 + 121 C67 + 895 C68 + 925 C69 + 467 C70
   + 594 C71 + 800 C72 + 367 C73 + 464 C74 + 66 C75 + 422 C76 + 644 C77
   + 607 C78 + 73 C79 + 335 C80 + 4 C81 + 530 C82 + 539 C83 + 820 C84
   + 583 C85 + 910 C86 + 426 C87 + 697 C88 + 145 C89 + 988 C90 + 322 C91
   + 122 C92 + 949 C93 + 660 C94 + 256 C95 + 320 C96 + 344 C97 + 230 C98
   + 585 C99 >= 12817
 R50: 301 C0 + 408 C1 + 670 C2 + 916 C3 + 373 C4 + 767 C5 + 975 C6 + 833 C7
   + 321 C8 + 955 C9 + 946 C10 + 462 C11 + 778 C12 + 768 C13 + 325 C14
   + 162 C15 + 638 C16 + 910 C17 + 555 C18 + 23 C19 + 181 C20 + 742 C21
   + 951 C22 + 659 C23 + 577 C24 + 862 C25 + 795 C26 + 647 C27 + 759 C28
   + 902 C29 + 103 C30 + 379 C31 + 310 C32 + 342 C33 + 300 C34 + 69 C35
   + 669 C36 + 177 C37 + 623 C38 + 61 C39 + 493 C40 + 751 C41 + 726 C42
   + 341 C43 + 15 C44 + 850 C45 + 492 C46 + 7 C47 + 170 C48 + 650 C49
   + 363 C50 + 780 C51 + 11 C52 + 345 C53 + 174 C54 + 575 C55 + 462 C56
   + 893 C57 + 581 C58 + 579 C59 + 634 C60 + 432 C61 + 561 C62 + 83 C63
   + 873 C64 + 703 C65 + 712 C66 + 835 C67 + 923 C68 + 351 C69 + 427 C70
   + 850 C71 + 386 C72 + 173 C73 + 153 C74 + 370 C75 + 800 C76 + 872 C77
   + 805 C78 + 460 C79 + 400 C80 + 547 C81 + 654 C82 + 540 C83 + 48 C84
   + 943 C85 + 766 C86 + 319 C87 + 875 C88 + 651 C89 + 501 C90 + 393 C91
   + 180 C92 + 507 C93 + 354 C94 + 271 C95 + 630 C96 + 590 C97 + 811 C98
   + 874 C99 >= 13427
 R51: 348 C0 + 352 C1 + 914 C2 + 287 C3 + 374 C4 + 816 C5 + 687 C6 + 181 C7
   + 662 C8 + 533 C9 + 959 C10 + 424 C11 + 66 C12 + 515 C13 + 796 C14
   + 182 C15 + 23 C16 + 154 C17 + 849 C18 + 986 C19 + 786 C20 + 14 C21
   + 948 C22 + 555 C23 + 157 C24 + 829 C25 + 432 C26 + 986 C27 + 261 C28
   + 615 C29 + 182 C30 + 194 C31 + 223 C32 + 770 C33 + 922 C34 + 623 C35
   + 390 C36 + 354 C37 + 641 C38 + 491 C39 + 213 C40 + 166 C41 + 859 C42
   + 874 C43 + 734 C44 + 250 C45 + 128 C46 + 253 C47 + 713 C48 + 389 C49
   + 661 C50 + 191 C51 + 301 C52 + 171 C53 + 792 C54 + 336 C55 + 20 C56
   + 192 C57 + 499 C58 + 735 C59 + 390 C60 + 525 C61 + 944 C62 + 818 C63
   + 863 C64 + 405 C65 + 658 C66 + 473 C67 + 723 C68 + 421 C69 + 100 C70
   + 653 C71 + 491 C72 + 811 C73 + 761 C74 + 842 C75 + 397 C76 + 566 C77
   + 40 C78 + 903 C79 + 53 C80 + 147 C81 + 375 C82 + 644 C83 + 804 C84
   + 803 C85 + 390 C86 + 715 C87 + 283 C88 + 62 C89 + 285 C90 + 382 C91
   + 245 C92 + 187 C93 + 576 C94 + 159 C95 + 361 C96 + 546 C97 + 49 C98
   + 576 C99 >= 10935
 R52: 440 C0 + 753 C1 + 464 C2 + 548 C3 + 82 C4 + 235 C5 + 599 C6 + 32 C7
   + 860 C8 + 121 C9 + 746 C10 + 818 C11 + 749 C12 + 680 C13 + 231 C14
   + 947 C15 + 673 C16 + 279 C17 + 981 C18 + 386 C19 + 16 C20 + 716 C21
   + 76 C22 + 573 C23 + 150 C24 + 448 C25 + 72 C26 + 329 C27 + 686 C28
   + 949 C29 + 253 C30 + 162 C31 + 968 C32 + 923 C33 + 541 C34 + 632 C35
   + 56 C36 + 782 C37 + 371 C38 + 412 C39 + 155 C40 + 176 C41 + 174 C42
   + 301 C43 + 310 C44 + 753 C45 + 177 C46 + 710 C47 + 273 C48 + 343 C49
   + 829 C50 + 692 C51 + 375 C52 + 65 C53 + 123 C54 + 390 C55 + 112 C56
   + 333 C57 + 587 C58 + 359 C59 + 170 C60 + 982 C61 + 689 C62 + 125 C63
   + 138 C64 + 196 C65 + 115 C66 + 337 C67 + 413 C68 + 685 C69 + 811 C70
   + 626 C71 + 879 C72 + 602 C73 + 377 C74 + 695 C75 + 89 C76 + 647 C77
   + 567 C78 + 847 C79 + 407 C80 + 159 C81 + 608 C82 + 635 C83 + 45 C84
   + 558 C85 + 767 C86 + 536 C87 + 616 C88 + 22 C89 + 788 C90 + 632 C91
   + 742 C92 + 25 C93 + 888 C94 + 975 C95 + 931 C96 + 865 C97 + 936 C98
   + 306 C99 >= 11276
 R53: 623 C0 + 351 C1 + 581 C2 + 287 C3 + 956 C4 + 70 C5 + 582 C6 + 99 C7
   + 257 C8 + 217 C9 + 566 C10 + 418 C11 + 402 C12 + 698 C13 + 566 C14
   + 341 C15 + 789 C16 + 578 C17 + 578 C18 + 34 C19 + 49 C20 + 303 C21
   + 318 C22 + 634 C23 + 637 C24 + 849 C25 + 472 C26 + 271 C27 + 492 C28
   + C29 + 477 C30 + 444 C31 + 94 C32 + 963 C33 + 391 C34 + 797 C35
   + 924 C36 + 632 C37 + 527 C38 + 250 C39 + 211 C40 + 123 C41 + 774 C42
   + 85 C43 + 870 C44 + 825 C45 + 868 C46 + 701 C47 + 383 C48 + 124 C49
   + 85 C50 + 371 C51 + 393 C52 + 120 C53 + 379 C54 + 969 C55 + 101 C56
   + 309 C57 + 641 C58 + 181 C59 + 13 C60 + 527 C61 + 189 C62 + 665 C63
   + 861 C64 + 523 C65 + 995 C66 + 539 C67 + 569 C68 + 16 C69 + 321 C70
   + 272 C71 + 46 C72 + 898 C73 + 322 C74 + 426 C75 + 171 C76 + 911 C77
   + 736 C78 + 236 C79 + 208 C80 + 260 C81 + 636 C82 + 589 C83 + 666 C84
   + 519 C85 + 184 C86 + 739 C87 + 913 C88 + 187 C89 + 848 C90 + 659 C91
   + 337 C92 + 671 C93 + 135 C94 + 293 C95 + 760 C96 + 713 C97 + 391 C98
   + 690 C99 >= 10546
 R54: 55 C0 + 946 C1 + 150 C2 + 125 C3 + 47 C4 + 361 C5 + C6 + 159 C7
   + 537 C8 + 528 C9 + 599 C10 + 115 C11 + 212 C12 + 770 C13 + 379 C14
   + 41 C15 + 426 C16 + 266 C17 + 953 C18 + 294 C19 + 248 C20 + 170 C21
   + 476 C22 + 37 C23 + 10 C24 + 784 C25 + 387 C26 + 956 C27 + 963 C28
   + 896 C29 + 573 C30 + 820 C31 + 477 C32 + 117 C33 + 826 C34 + 529 C35
   + 224 C36 + 935 C37 + 114 C38 + 852 C39 + 233 C40 + 801 C41 + 204 C42
   + 401 C43 + 233 C44 + 551 C45 + 855 C46 + 181 C47 + 713 C48 + 351 C49
   + 239 C50 + 44 C51 + 619 C52 + 79 C53 + 99 C54 + 458 C55 + 178 C56
   + 295 C57 + 11 C58 + 713 C59 + 262 C60 + 147 C61 + 537 C62 + 914 C63
   + 402 C64 + 628 C65 + 479 C66 + 700 C67 + 749 C68 + 580 C69 + 231 C70
   + 878 C71 + 540 C72 + 67 C73 + 456 C74 + 375 C75 + 432 C76 + 47 C77
   + 560 C78 + 341 C79 + 701 C80 + 407 C81 + 119 C82 + 453 C83 + 530 C84
   + 641 C85 + 759 C86 + 973 C87 + 876 C88 + 681 C89 + 552 C90 + 241 C91
   + 470 C92 + 528 C93 + 126 C94 + 914 C95 + 625 C96 + 129 C97 + 269 C98
   + 989 C99 >= 11231
 R55: 6 C0 + 492 C1 + 1000 C2 + 852 C3 + 570 C4 + 964 C5 + 70 C6 + 616 C7
   + 337 C8 + 581 C9 + 499 C10 + 750 C11 + 42 C12 + 392 C13 + 227 C14
   + 743 C15 + 612 C16 + 611 C17 + 932 C18 + 491 C19 + 866 C20 + 631 C21
   + 771 C22 + 638 C23 + 670 C24 + 940 C25 + 120 C26 + 497 C27 + 588 C28
   + 650 C29 + 164 C30 + 641 C31 + 829 C32 + 605 C33 + 389 C34 + 931 C35
   + 327 C36 + 564 C37 + 865 C38 + 375 C39 + 892 C40 + 454 C41 + 625 C42
   + 622 C43 + 24 C44 + 825 C45 + 365 C46 + 891 C47 + 9 C48 + 898 C49
   + 171 C50 + 587 C51 + 415 C52 + 192 C53 + 59 C54 + 323 C55 + 824 C56
   + 697 C57 + 670 C58 + 136 C59 + 610 C60 + 904 C61 + 85 C62 + 437 C63
   + 351 C64 + 973 C65 + 506 C66 + 585 C67 + 775 C68 + 281 C69 + 987 C70
   + 432 C71 + 510 C72 + 75 C73 + 34 C75 + 731 C76 + 825 C77 + 974 C78
   + 225 C79 + 337 C80 + 171 C81 + 868 C82 + 299 C83 + 870 C84 + 620 C85
   + 215 C86 + 61 C87 + 828 C88 + 888 C89 + 359 C90 + 429 C91 + 292 C92
   + 811 C93 + 272 C94 + 807 C95 + 570 C96 + 394 C97 + 544 C98 + 125 C99
   >= 13147
 R56: 961 C0 + 337 C1 + 576 C2 + 627 C3 + 85 C4 + 595 C5 + 131 C6 + 750 C7
   + 662 C8 + 391 C9 + 118 C10 + 721 C11 + 983 C12 + 718 C13 + 229 C14
   + 589 C15 + 833 C16 + 56 C17 + 588 C18 + 750 C19 + 749 C20 + 916 C21
   + 973 C22 + 194 C23 + 776 C24 + 876 C25 + 293 C26 + 361 C27 + 595 C28
   + 485 C29 + 271 C30 + 855 C31 + 298 C32 + 528 C33 + 536 C34 + 720 C35
   + 753 C36 + 704 C37 + 503 C38 + 371 C39 + 624 C40 + 166 C41 + 113 C42
   + 609 C43 + 772 C44 + 533 C45 + 818 C46 + 194 C47 + 240 C48 + 646 C49
   + 118 C50 + 160 C51 + 241 C52 + 240 C53 + 618 C54 + 597 C55 + 431 C56
   + 243 C57 + 117 C58 + 36 C59 + 704 C60 + 48 C61 + 820 C62 + 213 C63
   + 735 C64 + 639 C65 + 138 C66 + 583 C67 + 233 C68 + 348 C69 + 432 C70
   + 600 C71 + 259 C72 + 357 C73 + 706 C74 + 200 C75 + 162 C76 + 927 C77
   + 365 C78 + 573 C79 + 678 C80 + 683 C81 + 632 C82 + 820 C83 + 357 C84
   + 103 C85 + 301 C86 + 341 C87 + 410 C88 + 326 C89 + 495 C90 + 179 C91
   + 922 C92 + 939 C93 + 540 C94 + 643 C95 + 216 C96 + 759 C97 + 521 C98
   + 932 C99 >= 11371
 R57: 413 C0 + 47 C1 + 50 C2 + 202 C3 + 811 C4 + 398 C5 + 414 C6 + 469 C7
   + 216 C8 + 703 C9 + 967 C10 + 52 C11 + 206 C12 + 187 C13 + 536 C14
   + 206 C15 + 435 C16 + 985 C17 + 71 C18 + 802 C19 + 736 C20 + 801 C21
   + 360 C22 + 815 C23 + 365 C24 + 344 C25 + 890 C26 + 32 C27 + 747 C28
   + 413 C29 + 290 C30 + 47 C31 + 84 C32 + 376 C33 + 906 C34 + 145 C35
   + 365 C36 + 112 C37 + 213 C38 + 289 C39 + 205 C40 + 766 C41 + 293 C42
   + 379 C43 + 359 C44 + 644 C45 + 280 C46 + 104 C47 + 806 C48 + 579 C49
   + 455 C50 + 817 C51 + 989 C52 + 450 C53 + 905 C54 + 597 C55 + 405 C56
   + 933 C57 + 508 C58 + 728 C59 + 511 C60 + 760 C61 + 231 C62 + 958 C63
   + 809 C64 + 76 C65 + 166 C66 + 415 C67 + 162 C68 + 133 C69 + 695 C70
   + 941 C71 + 789 C72 + 498 C73 + 515 C74 + 308 C75 + 635 C76 + 121 C77
   + 24 C78 + 312 C79 + 425 C80 + 303 C81 + 39 C82 + 828 C83 + 16 C84
   + 968 C85 + 389 C86 + 17 C87 + 278 C88 + 125 C89 + 945 C90 + 249 C91
   + 992 C92 + 345 C93 + 780 C94 + 178 C95 + 96 C96 + 167 C97 + 182 C98
   + 608 C99 >= 10098
 R58: 164 C0 + 949 C1 + 500 C2 + 968 C3 + 967 C4 + 212 C5 + 365 C6 + 554 C7
   + 348 C8 + 471 C9 + 886 C10 + 217 C11 + 372 C12 + 976 C13 + 240 C14
   + 863 C15 + 927 C16 + 454 C17 + 599 C18 + 54 C19 + 86 C20 + 659 C21
   + 227 C22 + 209 C23 + 366 C24 + 292 C25 + 14 C26 + 204 C27 + 84 C28
   + 493 C29 + 250 C30 + 322 C31 + 125 C32 + 544 C33 + 745 C34 + 850 C35
   + 364 C36 + 995 C37 + 700 C38 + 58 C39 + 112 C40 + 30 C41 + 464 C42
   + 983 C43 + 627 C44 + 182 C45 + 934 C46 + 7 C47 + 761 C48 + 978 C49
   + 888 C50 + 79 C51 + 752 C52 + 866 C53 + 59 C54 + 793 C55 + 264 C56
   + 818 C57 + 573 C58 + 338 C59 + 746 C60 + 823 C61 + 635 C62 + 92 C63
   + 762 C64 + 693 C65 + 740 C66 + 753 C67 + 731 C68 + 351 C69 + 508 C70
   + 816 C71 + 338 C72 + 412 C73 + 803 C74 + 426 C75 + 662 C76 + 67 C77
   + 275 C78 + 617 C79 + 152 C80 + 817 C81 + 668 C82 + 994 C83 + 270 C84
   + 250 C85 + 432 C86 + 773 C87 + 996 C88 + 490 C89 + 494 C90 + 202 C91
   + 224 C92 + 104 C93 + 371 C94 + 850 C95 + 313 C96 + 161 C97 + 861 C98
   + 232 C99 >= 11319
 R59: 314 C0 + 583 C1 + 661 C2 + 544 C3 + 898 C4 + 385 C5 + 112 C6 + 108 C7
   + 337 C8 + 782 C9 + 52 C10 + 483 C11 + 520 C12 + 806 C13 + 635 C14
   + 451 C15 + 284 C16 + 349 C17 + 420 C18 + 549 C19 + 751 C20 + 769 C21
   + 25 C22 + 591 C23 + 361 C24 + 894 C25 + 21 C26 + 522 C27 + 202 C28
   + 607 C29 + 49 C30 + 155 C31 + 359 C32 + 734 C33 + 748 C34 + 821 C35
   + 217 C36 + 837 C37 + 745 C38 + 489 C39 + 935 C40 + 339 C41 + 946 C42
   + 595 C43 + 157 C44 + 759 C45 + 481 C46 + 550 C47 + 884 C48 + 676 C49
   + 606 C50 + 494 C51 + 960 C52 + 373 C53 + 897 C54 + 959 C55 + 483 C56
   + 623 C57 + 636 C58 + 559 C59 + 811 C60 + 557 C61 + 157 C62 + 775 C63
   + 569 C64 + 767 C65 + 154 C66 + 170 C67 + 736 C68 + 409 C69 + 78 C70
   + 461 C71 + 919 C72 + 16 C73 + 986 C74 + 632 C75 + 515 C76 + 926 C77
   + 832 C78 + 66 C79 + 357 C80 + 516 C81 + 228 C82 + C83 + 474 C84
   + 86 C85 + 512 C86 + 519 C87 + 586 C88 + 147 C89 + 832 C90 + 157 C91
   + 531 C92 + 88 C93 + 812 C94 + 612 C95 + 136 C96 + 923 C97 + 471 C98
   + 412 C99 >= 12755
Bounds
 C0 <= 1
 C1 <= 1
 C2 <= 1
 C3 <= 1
 C4 <= 1
 C5 <= 1
 C6 <= 1
 C7 <= 1
 C8 <= 1
 C9 <= 1
 C10 <= 1
 C11 <= 1
 C12 <= 1
 C13 <= 1
 C14 <= 1
 C15 <= 1
 C16 <= 1
 C17 <= 1
 C18 <= 1
 C19 <= 1
 C20 <= 1
 C21 <= 1
 C22 <= 1
 C23 <= 1
 C24 <= 1
 C25 <= 1
 C26 <= 1
 C27 <= 1
 C28 <= 1
 C29 <= 1
 C30 <= 1
 C31 <= 1
 C32 <= 1
 C33 <= 1
 C34 <= 1
 C35 <= 1
 C36 <= 1
 C37 <= 1
 C38 <= 1
 C39 <= 1
 C40 <= 1
 C41 <= 1
 C42 <= 1
 C43 <= 1
 C44 <= 1
 C45 <= 1
 C46 <= 1
 C47 <= 1
 C48 <= 1
 C49 <= 1
 C50 <= 1
 C51 <= 1
 C52 <= 1
 C53 <= 1
 C54 <= 1
 C55 <= 1
 C56 <= 1
 C57 <= 1
 C58 <= 1
 C59 <= 1
 C60 <= 1
 C61 <= 1
 C62 <= 1
 C63 <= 1
 C64 <= 1
 C65 <= 1
 C66 <= 1
 C67 <= 1
 C68 <= 1
 C69 <= 1
 C70 <= 1
 C71 <= 1
 C72 <= 1
 C73 <= 1
 C74 <= 1
 C75 <= 1
 C76 <= 1
 C77 <= 1
 C78 <= 1
 C79 <= 1
 C80 <= 1
 C81 <= 1
 C82 <= 1
 C83 <= 1
 C84 <= 1
 C85 <= 1
 C86 <= 1
 C87 <= 1
 C88 <= 1
 C89 <= 1
 C90 <= 1
 C91 <= 1
 C92 <= 1
 C93 <= 1
 C94 <= 1
 C95 <= 1
 C96 <= 1
 C97 <= 1
 C98 <= 1
 C99 <= 1
End
