\ LP format - for model browsing. Use MPS format to capture full model detail.
\ Signature: 0xa67fd6a3d79327bb
Maximize
  254 C0 + 392 C1 + 413 C2 + 478 C3 + 386 C4 + 236 C5 + 299 C6 + 242 C7
   + 218 C8 + 419 C9 + 234 C10 + 387 C11 + 811 C12 + 296 C13 + 464 C14
   + 485 C15 + 259 C16 + 81 C17 + 770 C18 + 259 C19 + 212 C20 + 442 C21
   + 398 C22 + 231 C23 + 383 C24 + 296 C25 + 120 C26 + 171 C27 + 53 C28
   + 394 C29 + 253 C30 + 328 C31 + 145 C32
Subject To
 R0: 913 C0 + 272 C1 + 472 C2 + 229 C3 + 158 C4 + 973 C5 + 846 C6 + 853 C7
   + 349 C8 + 628 C9 + 546 C10 + 6 C11 + 792 C12 + 541 C13 + 495 C14
   + 138 C15 + 388 C16 + 460 C17 + 472 C18 + 148 C19 + 126 C20 + 48 C21
   + 12 C22 + 311 C23 + 406 C24 + 183 C25 + 932 C26 + 692 C27 + 832 C28
   + 93 C29 + 312 C30 + 45 C31 + 148 C32 <= 6698
 R1: 948 C0 + 261 C1 + 900 C2 + 949 C3 + 756 C4 + 533 C5 + 888 C6 + 835 C7
   + 932 C8 + 127 C9 + 408 C10 + 569 C11 + 164 C12 + 580 C13 + 545 C14
   + 555 C15 + 721 C16 + 317 C17 + 310 C18 + 232 C19 + 189 C20 + 929 C21
   + 742 C22 + 343 C23 + 209 C24 + 243 C25 + 442 C26 + 7 C27 + 455 C28
   + 301 C29 + 452 C30 + 188 C31 + 313 C32 <= 8795
 R2: 203 C0 + 876 C1 + 244 C2 + 97 C3 + 954 C4 + 304 C5 + 656 C6 + 770 C7
   + 247 C8 + 801 C9 + 529 C10 + 227 C11 + 937 C12 + 422 C13 + 845 C14
   + 162 C15 + 247 C16 + 682 C17 + 970 C18 + 405 C19 + 94 C20 + 575 C21
   + 562 C22 + 468 C23 + 349 C24 + 309 C25 + 416 C26 + 435 C27 + 259 C28
   + 637 C29 + 501 C30 + 674 C31 + 162 C32 <= 8369
 R3: 118 C0 + 555 C1 + 737 C2 + 193 C3 + 962 C4 + 266 C5 + 816 C6 + 888 C7
   + 207 C8 + 239 C9 + 339 C10 + 757 C11 + 34 C12 + 366 C13 + 423 C14
   + 504 C15 + 677 C16 + 596 C17 + 693 C18 + 312 C19 + 6 C20 + 319 C21
   + 249 C22 + 757 C23 + 161 C24 + 392 C25 + 773 C26 + 727 C27 + 340 C28
   + 792 C29 + 874 C30 + 723 C31 + 681 C32 <= 9233
 R4: 257 C0 + 653 C1 + 363 C2 + 569 C3 + 573 C4 + 593 C5 + 693 C6 + 228 C7
   + 998 C8 + 477 C9 + 782 C10 + 569 C11 + 312 C12 + 484 C13 + 800 C14
   + 914 C15 + 28 C16 + 596 C17 + 935 C18 + 421 C19 + 281 C20 + 760 C21
   + 111 C22 + 929 C23 + 38 C24 + 63 C25 + 172 C26 + 723 C27 + 663 C28
   + 223 C29 + 343 C30 + 505 C31 + 933 C32 <= 8428
 R5: 865 C0 + 452 C1 + 311 C2 + 72 C3 + 98 C4 + 848 C5 + 234 C6 + 18 C7
   + 642 C8 + 815 C9 + 763 C10 + 242 C11 + 600 C12 + 738 C13 + 105 C14
   + 440 C15 + 783 C16 + 61 C17 + 712 C18 + 260 C19 + 244 C20 + 87 C21
   + 175 C22 + 44 C23 + 258 C24 + 653 C25 + 996 C26 + 668 C27 + 2 C28
   + 818 C29 + 735 C30 + 938 C31 + 336 C32 <= 7786
 R6: 930 C0 + 788 C1 + 81 C2 + 341 C3 + 334 C4 + 855 C5 + 315 C6 + 867 C7
   + 208 C8 + 441 C9 + 330 C10 + 262 C11 + 287 C12 + 306 C13 + 690 C14
   + 744 C15 + 36 C16 + 540 C17 + 972 C18 + 475 C19 + 946 C20 + 80 C21
   + 895 C22 + 32 C23 + 844 C24 + 270 C25 + 649 C26 + 362 C27 + 136 C28
   + 308 C29 + 579 C30 + 594 C31 + 706 C32 <= 9206
 R7: 694 C0 + 678 C1 + 638 C2 + 193 C3 + 272 C4 + 691 C5 + 367 C6 + 475 C7
   + 482 C8 + 766 C9 + 981 C10 + 157 C11 + 990 C12 + 681 C13 + 400 C14
   + 998 C15 + 289 C16 + 144 C17 + 761 C18 + 225 C19 + 56 C20 + 802 C21
   + 706 C22 + 810 C23 + 542 C24 + 683 C25 + 660 C26 + 442 C27 + 379 C28
   + 776 C29 + 136 C30 + 958 C31 + 376 C32 <= 9954
 R8: 588 C0 + 650 C1 + 743 C2 + 172 C3 + 811 C4 + 222 C5 + 4 C6 + 193 C7
   + 88 C8 + 458 C9 + 999 C10 + 401 C11 + 404 C12 + 360 C13 + 802 C14
   + 41 C15 + 192 C16 + 336 C17 + 641 C18 + 333 C19 + 688 C20 + 969 C21
   + 879 C22 + 194 C23 + 532 C24 + 225 C25 + 17 C26 + 476 C27 + 822 C28
   + 183 C29 + 571 C30 + 30 C31 + 560 C32 <= 7649
 R9: 69 C0 + 51 C1 + 574 C2 + 736 C3 + 593 C4 + 662 C5 + 752 C6 + 760 C7
   + 239 C8 + 895 C9 + 739 C10 + 900 C11 + 815 C12 + 616 C13 + 897 C14
   + 389 C15 + 258 C16 + 512 C17 + 191 C18 + 65 C19 + 223 C20 + 513 C21
   + 269 C22 + 105 C23 + 312 C24 + 337 C25 + 613 C26 + 115 C27 + 735 C28
   + 702 C29 + 380 C30 + 113 C31 + 113 C32 <= 7858
 R10: 14 C0 + 880 C1 + 809 C2 + 846 C3 + 923 C4 + 277 C5 + 228 C6 + 366 C7
   + 675 C8 + 192 C9 + 29 C10 + 481 C11 + 970 C12 + 674 C13 + 945 C14
   + 179 C15 + 868 C16 + 154 C17 + 994 C18 + 594 C19 + 646 C20 + 863 C21
   + 205 C22 + 153 C23 + 682 C24 + 932 C25 + 205 C26 + 23 C27 + 838 C28
   + 176 C29 + 525 C30 + 159 C31 + 748 C32 <= 9706
 R11: 630 C0 + 239 C1 + 144 C2 + 707 C3 + 553 C4 + 37 C5 + 169 C6 + 696 C7
   + 485 C8 + 73 C9 + 354 C10 + 883 C11 + 868 C12 + 904 C13 + 522 C14
   + 650 C15 + 43 C16 + 37 C17 + 764 C18 + 963 C19 + 985 C20 + 278 C21
   + 964 C22 + 151 C23 + 145 C24 + 765 C25 + 414 C26 + 211 C27 + 104 C28
   + 728 C29 + 697 C30 + 688 C31 + 347 C32 <= 8478
 R12: 294 C0 + 504 C1 + 575 C2 + 897 C3 + 858 C4 + 768 C5 + 758 C6 + 395 C7
   + 283 C8 + 713 C9 + 592 C10 + 119 C11 + 709 C12 + 710 C13 + 614 C14
   + 387 C15 + 79 C16 + 119 C17 + 24 C18 + 252 C19 + 747 C20 + 314 C21
   + 678 C22 + 417 C23 + 995 C24 + 230 C25 + 911 C26 + 686 C27 + 176 C28
   + 827 C29 + 11 C30 + 863 C31 + 4 C32 <= 9771
 R13: 594 C0 + 188 C1 + 868 C2 + 38 C3 + 716 C4 + 113 C5 + 328 C6 + 18 C7
   + 171 C8 + 86 C9 + 75 C10 + 561 C11 + 952 C12 + 31 C13 + 2 C14 + 262 C15
   + 514 C16 + 739 C17 + 774 C18 + 783 C19 + 868 C20 + 1000 C21 + 891 C22
   + 278 C23 + 589 C24 + 286 C25 + 256 C26 + 716 C27 + 27 C28 + 528 C29
   + 860 C30 + 893 C31 + 180 C32 <= 8349
 R14: 675 C0 + 131 C1 + 863 C2 + 758 C3 + 138 C4 + 589 C5 + 191 C6 + 506 C7
   + 374 C8 + 990 C9 + 278 C10 + 928 C11 + 472 C12 + 232 C13 + 60 C14
   + 735 C15 + 134 C16 + 450 C17 + 615 C18 + 22 C19 + 553 C20 + 385 C21
   + 935 C22 + 304 C23 + 523 C24 + 73 C25 + 216 C26 + 273 C27 + 969 C28
   + 592 C29 + 995 C30 + 750 C31 + 157 C32 <= 8842
 R15: 385 C0 + 527 C1 + 275 C2 + 344 C3 + 304 C4 + 817 C5 + 152 C6 + 781 C7
   + 461 C8 + 925 C9 + 949 C10 + 218 C11 + 779 C12 + 294 C13 + 687 C14
   + 447 C15 + 273 C16 + 418 C17 + 848 C18 + 108 C19 + 481 C20 + C21
   + 620 C22 + 619 C23 + 525 C24 + 293 C25 + 415 C26 + 889 C27 + 132 C28
   + 269 C29 + 331 C30 + 652 C31 + 566 C32 <= 8056
 R16: 954 C0 + 499 C1 + 151 C2 + 59 C3 + 951 C4 + 465 C5 + 911 C6 + 137 C7
   + 350 C8 + 827 C9 + 499 C10 + 142 C11 + 305 C12 + 832 C13 + 792 C14
   + 418 C15 + 329 C16 + 336 C17 + 567 C18 + 394 C19 + 711 C20 + 331 C21
   + 903 C22 + 284 C23 + 247 C24 + 700 C25 + 705 C26 + 337 C27 + 593 C28
   + 828 C29 + 703 C30 + 14 C31 + 86 C32 <= 8376
 R17: 4 C0 + 498 C1 + 660 C2 + 366 C3 + 759 C4 + 973 C5 + 738 C6 + 384 C7
   + 771 C8 + 138 C9 + 127 C10 + 732 C11 + 450 C12 + 795 C13 + 824 C14
   + 821 C15 + 758 C16 + 13 C17 + 104 C18 + 260 C19 + 524 C20 + 129 C21
   + 708 C22 + 393 C23 + 901 C24 + 997 C25 + 830 C26 + 757 C27 + 512 C28
   + 784 C29 + 685 C30 + 688 C31 + 696 C32 <= 10072
 R18: 843 C0 + 320 C1 + 309 C2 + 280 C3 + 792 C4 + 971 C5 + 197 C6 + 517 C7
   + 392 C8 + 545 C9 + 870 C10 + 670 C11 + 817 C12 + 368 C13 + 998 C14
   + 877 C15 + 779 C16 + 187 C17 + 982 C18 + 447 C19 + 985 C20 + 806 C21
   + 929 C22 + 51 C23 + 881 C24 + 562 C25 + 51 C26 + 623 C27 + 508 C28
   + 372 C29 + 157 C30 + 200 C31 + 372 C32 <= 9919
 R19: 930 C0 + 706 C1 + 481 C2 + 765 C3 + 912 C4 + 403 C5 + 440 C6 + 858 C7
   + 34 C8 + 459 C9 + 937 C10 + 84 C11 + 851 C12 + 167 C13 + 723 C14
   + 343 C15 + 802 C16 + 46 C17 + 992 C18 + 445 C19 + 630 C20 + 747 C21
   + 364 C22 + 13 C23 + 670 C24 + 688 C25 + 282 C26 + 355 C27 + 882 C28
   + 264 C29 + 183 C30 + 349 C31 + 51 C32 <= 9242
 R20: 234 C0 + 942 C1 + 305 C2 + 628 C3 + 699 C4 + 629 C5 + 145 C6 + 675 C7
   + 671 C8 + 421 C9 + 563 C10 + 833 C11 + 526 C12 + 769 C13 + 316 C14
   + 795 C15 + 620 C16 + 858 C17 + 698 C18 + 579 C19 + 436 C20 + 122 C21
   + 501 C22 + 371 C23 + 569 C24 + 994 C25 + 249 C26 + 332 C27 + 315 C28
   + 807 C29 + 918 C30 + 943 C31 + 991 C32 <= 10846
 R21: 909 C0 + 321 C1 + 457 C2 + 146 C3 + 581 C4 + 932 C5 + 410 C6 + 73 C7
   + 312 C8 + 202 C9 + 762 C10 + 321 C11 + 715 C12 + 607 C13 + 69 C14
   + 630 C15 + 941 C16 + 711 C17 + 495 C18 + 888 C19 + 108 C20 + 341 C21
   + 83 C22 + 801 C23 + 403 C24 + 212 C25 + 317 C26 + 261 C27 + 232 C28
   + 613 C29 + 151 C30 + 501 C31 + 972 C32 <= 8188
 R22: 609 C0 + 619 C1 + 440 C2 + 496 C3 + 912 C4 + 904 C5 + 194 C6 + 686 C7
   + 384 C8 + 945 C9 + 962 C10 + 318 C11 + 19 C12 + 277 C13 + 828 C14
   + 954 C15 + 112 C16 + 397 C17 + 721 C18 + 189 C19 + 965 C20 + 725 C21
   + 806 C22 + 498 C23 + 184 C24 + 414 C25 + 539 C26 + 840 C27 + 26 C28
   + 74 C29 + 360 C30 + 162 C31 + 378 C32 <= 8067
 R23: 124 C0 + 867 C1 + 934 C2 + 892 C3 + 548 C4 + 685 C5 + 563 C6 + 925 C7
   + 410 C8 + 472 C9 + 688 C10 + 637 C11 + 594 C12 + 413 C13 + 440 C14
   + 783 C15 + 919 C16 + 968 C17 + 152 C18 + 716 C19 + 199 C20 + 323 C21
   + 344 C22 + 140 C23 + 894 C24 + 495 C25 + 235 C26 + 255 C27 + 630 C28
   + 646 C29 + 58 C30 + 166 C31 + 454 C32 <= 10327
 R24: 107 C0 + 291 C1 + 705 C2 + 681 C3 + 306 C4 + 943 C5 + 856 C6 + 726 C7
   + 845 C8 + 64 C9 + 53 C10 + 92 C11 + 957 C12 + 364 C13 + 411 C14
   + 583 C15 + 415 C16 + 83 C17 + 3 C18 + 217 C19 + 978 C20 + 31 C21
   + 796 C22 + 900 C23 + 837 C24 + 343 C25 + 380 C26 + 238 C27 + 161 C28
   + 547 C29 + 525 C30 + 685 C31 + 325 C32 <= 8417
 R25: 257 C0 + 843 C1 + 630 C2 + 830 C3 + 432 C4 + 585 C5 + 780 C6 + 811 C7
   + 528 C8 + 199 C9 + 269 C10 + 993 C11 + 955 C12 + 966 C13 + 342 C14
   + 659 C15 + 966 C16 + 678 C17 + 456 C18 + 505 C19 + 20 C20 + 978 C21
   + 58 C22 + 671 C23 + 722 C24 + 985 C25 + 285 C26 + 52 C27 + 72 C28
   + 717 C29 + 167 C30 + 216 C31 + 983 C32 <= 10418
 R26: 512 C0 + 734 C1 + 521 C2 + 353 C3 + 331 C4 + 73 C5 + 209 C6 + 262 C7
   + 637 C8 + 787 C9 + 660 C10 + 474 C11 + 973 C12 + 482 C13 + 238 C14
   + 784 C15 + 573 C16 + 287 C17 + 604 C18 + 102 C19 + 54 C20 + 13 C21
   + 89 C22 + 650 C23 + 291 C24 + 781 C25 + 18 C26 + 620 C27 + 205 C28
   + 298 C29 + 972 C30 + 550 C31 + 996 C32 <= 8755
 R27: 306 C0 + 245 C1 + 508 C2 + 504 C3 + 848 C4 + 916 C5 + 286 C6 + 613 C7
   + 750 C8 + 477 C9 + 599 C10 + 320 C11 + 807 C12 + 860 C13 + 385 C14
   + 520 C15 + 812 C16 + 496 C17 + 691 C18 + 903 C19 + 468 C20 + 471 C21
   + 378 C22 + 111 C23 + 824 C24 + 137 C25 + 539 C26 + 838 C27 + 98 C28
   + 327 C29 + 332 C30 + 594 C31 + 745 C32 <= 9216
 R28: 134 C0 + 838 C1 + 904 C2 + 148 C3 + 855 C4 + 50 C5 + 278 C6 + 75 C7
   + 128 C8 + 705 C9 + 642 C10 + 714 C11 + 403 C12 + 549 C13 + 770 C14
   + 849 C15 + 793 C16 + 772 C17 + 53 C18 + 433 C19 + 799 C20 + 8 C21
   + 773 C22 + 24 C23 + 967 C24 + 826 C25 + 970 C26 + 509 C27 + 439 C28
   + 361 C29 + 902 C30 + 834 C31 + 559 C32 <= 9241
 R29: 619 C0 + 996 C1 + 166 C2 + 485 C3 + 708 C4 + 560 C5 + 969 C6 + 295 C7
   + 131 C8 + 558 C9 + 958 C10 + 393 C11 + 689 C12 + 67 C13 + 588 C14
   + 255 C15 + 216 C16 + 746 C17 + 205 C18 + 679 C19 + 739 C20 + 511 C21
   + 878 C22 + 263 C23 + 405 C24 + 428 C25 + 115 C26 + 120 C27 + 594 C28
   + 495 C29 + 238 C30 + 812 C31 + 736 C32 <= 8742
 R30: 556 C0 + 163 C1 + 575 C2 + 141 C3 + 208 C4 + 332 C5 + 275 C6 + 627 C7
   + 788 C8 + 38 C9 + 533 C10 + 103 C11 + 985 C12 + 731 C13 + 713 C14
   + 644 C15 + 631 C16 + 915 C17 + 719 C18 + 911 C19 + 412 C20 + 394 C21
   + 462 C22 + 641 C23 + 554 C24 + 585 C25 + 237 C26 + 360 C27 + 636 C28
   + 907 C29 + 174 C30 + 868 C31 + 934 C32 >= 9293
 R31: 413 C0 + 111 C1 + 890 C2 + 486 C3 + 153 C4 + 253 C5 + 608 C6 + 409 C7
   + 989 C8 + 968 C9 + 650 C10 + 21 C11 + 729 C12 + 63 C13 + 914 C14
   + 28 C15 + 57 C16 + 536 C17 + 91 C18 + 334 C19 + 470 C20 + 463 C21
   + 393 C22 + 428 C23 + 911 C24 + 729 C25 + 793 C26 + 78 C27 + 286 C28
   + 605 C29 + 598 C30 + 939 C31 + 742 C32 >= 7829
 R32: 907 C0 + 488 C1 + 618 C2 + 220 C3 + 566 C4 + 10 C5 + 568 C6 + 866 C7
   + 608 C8 + 431 C9 + 432 C10 + 457 C11 + 650 C12 + 944 C13 + 338 C14
   + 752 C15 + 869 C16 + 759 C17 + 105 C18 + 958 C19 + 251 C20 + 665 C21
   + 757 C22 + 193 C23 + 266 C24 + 984 C25 + 327 C26 + 88 C27 + 244 C28
   + 299 C29 + 715 C30 + 271 C31 + 7 C32 >= 8392
 R33: 547 C0 + 25 C1 + 145 C2 + 370 C3 + 462 C4 + 25 C5 + 915 C6 + 468 C7
   + 90 C8 + 313 C9 + 525 C10 + 961 C11 + 167 C12 + 634 C13 + 95 C14
   + 467 C15 + 935 C16 + 580 C17 + 354 C18 + 176 C19 + 871 C20 + 316 C21
   + 149 C22 + 449 C23 + 558 C24 + 144 C25 + 526 C26 + 614 C27 + 525 C28
   + 3 C29 + 833 C30 + 665 C31 + 663 C32 >= 7560
 R34: 599 C0 + 359 C1 + 702 C2 + 580 C3 + 87 C4 + 984 C5 + 64 C6 + 85 C7
   + 253 C8 + 979 C9 + 569 C10 + 38 C11 + 903 C12 + 875 C13 + 938 C14
   + 707 C15 + 387 C16 + 279 C17 + 316 C18 + 2 C19 + 624 C20 + 805 C21
   + 514 C22 + 723 C23 + 788 C24 + 490 C25 + 82 C26 + 706 C27 + 765 C28
   + 814 C29 + 46 C30 + 354 C31 + 432 C32 >= 7207
 R35: 125 C0 + 938 C1 + 987 C2 + 544 C3 + 223 C4 + 588 C5 + 83 C6 + 59 C7
   + 62 C8 + 231 C9 + 231 C10 + 826 C11 + 550 C12 + 469 C13 + 493 C14
   + 96 C15 + 212 C16 + 348 C17 + 797 C18 + 41 C19 + 874 C20 + 396 C21
   + 820 C22 + 882 C23 + 207 C24 + 862 C25 + 569 C26 + 142 C27 + 341 C28
   + 468 C29 + 355 C30 + 987 C31 + 942 C32 >= 7937
 R36: 794 C0 + 559 C1 + 776 C2 + 881 C3 + 945 C4 + 683 C5 + 624 C6 + 260 C7
   + 463 C8 + 361 C9 + 26 C10 + 100 C11 + 314 C12 + 777 C13 + 236 C14
   + 899 C15 + 109 C16 + 399 C17 + 686 C18 + 527 C19 + 918 C20 + 52 C21
   + 755 C22 + 266 C23 + 297 C24 + 252 C25 + 321 C26 + 341 C27 + 825 C28
   + 842 C29 + 204 C30 + 663 C31 + 780 C32 >= 9206
 R37: 447 C0 + 649 C1 + 781 C2 + 255 C3 + 738 C4 + 49 C5 + 306 C6 + 893 C7
   + 313 C8 + 375 C9 + 758 C10 + 627 C11 + 8 C12 + 127 C13 + 869 C14
   + 508 C15 + 683 C16 + 805 C17 + 378 C18 + 482 C19 + 302 C20 + 382 C21
   + 625 C22 + 845 C23 + 537 C24 + 686 C25 + 810 C26 + 575 C27 + 812 C28
   + 96 C29 + 911 C30 + 301 C31 + 791 C32 >= 8144
 R38: 399 C0 + 197 C1 + 319 C2 + 449 C3 + 630 C4 + 187 C5 + 34 C6 + 128 C7
   + 582 C8 + 63 C9 + 445 C10 + 190 C11 + 522 C12 + 344 C13 + 482 C14
   + 114 C15 + 692 C16 + 926 C17 + 957 C18 + 360 C19 + 406 C20 + 707 C21
   + 189 C22 + 359 C23 + 862 C24 + 173 C25 + 377 C26 + 14 C27 + 782 C28
   + 17 C29 + 898 C30 + 927 C31 + 495 C32 >= 6270
 R39: 63 C0 + 675 C1 + 454 C2 + 97 C3 + 107 C4 + 519 C5 + 554 C6 + 764 C7
   + 762 C8 + 357 C9 + 778 C10 + 124 C11 + 746 C12 + 750 C13 + 95 C14
   + 107 C15 + 235 C16 + 329 C17 + 753 C18 + 288 C19 + 209 C20 + 723 C21
   + 257 C22 + 632 C23 + 215 C24 + 902 C25 + 741 C26 + 339 C27 + 324 C28
   + 740 C29 + 149 C30 + 478 C31 + 543 C32 >= 6814
 R40: 736 C0 + 315 C1 + 340 C2 + 847 C3 + 981 C4 + 634 C5 + 601 C6 + 328 C7
   + 73 C8 + 700 C9 + 681 C10 + 110 C11 + 69 C12 + 797 C13 + 335 C14
   + 258 C15 + 924 C16 + 242 C17 + 793 C18 + 868 C19 + 254 C20 + 778 C21
   + 470 C23 + 141 C24 + 345 C25 + 406 C26 + 433 C27 + 210 C28 + 776 C29
   + 928 C30 + 967 C31 + 412 C32 >= 8577
 R41: 494 C0 + 889 C1 + 484 C2 + 726 C3 + 272 C4 + 691 C5 + 125 C6 + 956 C7
   + 616 C8 + 551 C9 + 952 C10 + 581 C11 + 143 C12 + 27 C13 + 633 C14
   + 91 C15 + 832 C16 + 560 C17 + 549 C18 + 422 C19 + 198 C20 + 71 C21
   + 896 C22 + 793 C23 + 609 C24 + 483 C25 + 557 C26 + 519 C27 + 873 C28
   + 670 C29 + 569 C30 + 388 C31 + 10 C32 >= 8939
 R42: 158 C0 + 475 C1 + 944 C2 + 122 C3 + 733 C4 + 976 C5 + 160 C6 + 461 C7
   + 240 C8 + 815 C9 + 844 C10 + 171 C11 + 719 C12 + 105 C13 + 113 C14
   + 488 C15 + 294 C16 + 986 C17 + 235 C18 + 483 C19 + 764 C20 + 921 C21
   + 806 C22 + 599 C23 + 540 C24 + 332 C25 + 797 C26 + 341 C27 + 766 C28
   + 392 C29 + 486 C30 + 927 C31 + 584 C32 >= 8679
 R43: 669 C0 + 264 C1 + 303 C2 + 378 C3 + 91 C4 + 95 C5 + 856 C6 + 570 C7
   + 997 C8 + 497 C9 + 666 C10 + 661 C11 + 913 C12 + 716 C13 + 233 C14
   + 515 C15 + 173 C16 + 326 C17 + 293 C18 + 308 C19 + 423 C20 + 986 C21
   + 75 C22 + 268 C23 + 914 C24 + 18 C25 + 389 C26 + 320 C27 + 599 C28
   + 875 C29 + 529 C30 + 878 C31 + 438 C32 >= 8835
 R44: 627 C0 + 87 C1 + 251 C2 + 80 C3 + 658 C4 + 726 C5 + 720 C6 + 906 C7
   + 265 C8 + 421 C9 + 590 C10 + 719 C11 + 579 C12 + 989 C13 + 438 C14
   + 314 C15 + 809 C16 + 455 C17 + 852 C18 + 54 C19 + 992 C20 + 207 C21
   + 627 C22 + 214 C23 + 94 C24 + 267 C25 + 788 C26 + 491 C27 + 591 C28
   + 645 C29 + 594 C30 + 730 C31 + 534 C32 >= 8638
 R45: 557 C0 + 949 C1 + 794 C2 + 263 C3 + 143 C4 + 484 C5 + 167 C6 + 386 C7
   + 720 C8 + 155 C9 + 540 C10 + 314 C11 + 536 C12 + 327 C13 + 853 C14
   + 782 C15 + 989 C16 + 554 C17 + 839 C18 + 394 C19 + 189 C20 + 359 C21
   + 576 C22 + 412 C23 + 312 C24 + 973 C25 + 253 C26 + 736 C27 + 51 C28
   + 366 C29 + 932 C30 + 83 C31 + 541 C32 >= 8265
 R46: 821 C0 + 595 C1 + 655 C2 + 386 C3 + 849 C4 + 744 C5 + 70 C6 + 299 C7
   + 361 C8 + 227 C9 + 300 C10 + 609 C11 + 984 C12 + 36 C13 + 557 C14
   + 370 C15 + 560 C16 + 47 C17 + 401 C18 + 605 C19 + 565 C20 + 774 C21
   + 889 C22 + 434 C23 + 66 C24 + 753 C25 + 894 C26 + 598 C27 + 854 C28
   + 275 C29 + 300 C30 + 497 C31 + 611 C32 >= 8491
 R47: 840 C0 + 88 C1 + 499 C2 + 51 C3 + 891 C4 + 95 C5 + 713 C6 + 838 C7
   + 471 C8 + 67 C9 + 4 C10 + 424 C11 + 254 C12 + 32 C13 + 89 C14 + 148 C15
   + 257 C16 + 687 C17 + 155 C18 + 693 C19 + 346 C20 + 579 C21 + 982 C22
   + 280 C23 + 951 C24 + 524 C25 + 147 C26 + 970 C27 + 28 C28 + 175 C29
   + 890 C30 + 217 C31 + 473 C32 >= 6633
 R48: 818 C0 + 678 C1 + 423 C2 + 633 C3 + 525 C4 + 523 C5 + 879 C6 + 309 C7
   + 429 C8 + 967 C9 + 978 C10 + 990 C11 + 518 C12 + 410 C13 + 372 C14
   + 32 C15 + 885 C16 + 20 C17 + 921 C18 + 298 C19 + 919 C20 + 733 C21
   + 980 C22 + 441 C23 + 948 C24 + 995 C25 + 802 C26 + 59 C27 + 211 C28
   + 636 C29 + 545 C30 + 631 C31 + 444 C32 >= 10544
 R49: 495 C0 + 563 C1 + 385 C2 + 821 C3 + 636 C4 + 815 C5 + 618 C6 + 368 C7
   + 731 C8 + 992 C9 + 872 C10 + 660 C11 + 69 C12 + 780 C13 + 582 C14
   + 815 C15 + 180 C16 + 20 C17 + 776 C18 + 626 C19 + 102 C20 + 367 C21
   + 464 C22 + 66 C23 + 422 C24 + 644 C25 + 530 C26 + 583 C27 + 697 C28
   + 322 C29 + 256 C30 + 230 C31 + 585 C32 >= 7660
 R50: 301 C0 + 670 C1 + 321 C2 + 325 C3 + 638 C4 + 555 C5 + 951 C6 + 902 C7
   + 379 C8 + 342 C9 + 300 C10 + 623 C11 + 61 C12 + 726 C13 + 15 C14
   + 363 C15 + 780 C16 + 575 C17 + 462 C18 + 579 C19 + 432 C20 + 173 C21
   + 153 C22 + 370 C23 + 800 C24 + 872 C25 + 654 C26 + 943 C27 + 875 C28
   + 393 C29 + 271 C30 + 811 C31 + 874 C32 >= 9025
 R51: 348 C0 + 914 C1 + 662 C2 + 796 C3 + 23 C4 + 849 C5 + 948 C6 + 615 C7
   + 194 C8 + 770 C9 + 922 C10 + 641 C11 + 491 C12 + 859 C13 + 734 C14
   + 661 C15 + 191 C16 + 336 C17 + 20 C18 + 735 C19 + 525 C20 + 811 C21
   + 761 C22 + 842 C23 + 397 C24 + 566 C25 + 375 C26 + 803 C27 + 283 C28
   + 382 C29 + 159 C30 + 49 C31 + 576 C32 >= 9590
 R52: 440 C0 + 464 C1 + 860 C2 + 231 C3 + 673 C4 + 981 C5 + 76 C6 + 949 C7
   + 162 C8 + 923 C9 + 541 C10 + 371 C11 + 412 C12 + 174 C13 + 310 C14
   + 829 C15 + 692 C16 + 390 C17 + 112 C18 + 359 C19 + 982 C20 + 602 C21
   + 377 C22 + 695 C23 + 89 C24 + 647 C25 + 608 C26 + 558 C27 + 616 C28
   + 632 C29 + 975 C30 + 936 C31 + 306 C32 >= 8701
 R53: 623 C0 + 581 C1 + 257 C2 + 566 C3 + 789 C4 + 578 C5 + 318 C6 + C7
   + 444 C8 + 963 C9 + 391 C10 + 527 C11 + 250 C12 + 774 C13 + 870 C14
   + 85 C15 + 371 C16 + 969 C17 + 101 C18 + 181 C19 + 527 C20 + 898 C21
   + 322 C22 + 426 C23 + 171 C24 + 911 C25 + 636 C26 + 519 C27 + 913 C28
   + 659 C29 + 293 C30 + 391 C31 + 690 C32 >= 8578
 R54: 55 C0 + 150 C1 + 537 C2 + 379 C3 + 426 C4 + 953 C5 + 476 C6 + 896 C7
   + 820 C8 + 117 C9 + 826 C10 + 114 C11 + 852 C12 + 204 C13 + 233 C14
   + 239 C15 + 44 C16 + 458 C17 + 178 C18 + 713 C19 + 147 C20 + 67 C21
   + 456 C22 + 375 C23 + 432 C24 + 47 C25 + 119 C26 + 641 C27 + 876 C28
   + 241 C29 + 914 C30 + 269 C31 + 989 C32 >= 6573
 R55: 6 C0 + 1000 C1 + 337 C2 + 227 C3 + 612 C4 + 932 C5 + 771 C6 + 650 C7
   + 641 C8 + 605 C9 + 389 C10 + 865 C11 + 375 C12 + 625 C13 + 24 C14
   + 171 C15 + 587 C16 + 323 C17 + 824 C18 + 136 C19 + 904 C20 + 75 C21
   + 34 C23 + 731 C24 + 825 C25 + 868 C26 + 620 C27 + 828 C28 + 429 C29
   + 807 C30 + 544 C31 + 125 C32 >= 8792
 R56: 961 C0 + 576 C1 + 662 C2 + 229 C3 + 833 C4 + 588 C5 + 973 C6 + 485 C7
   + 855 C8 + 528 C9 + 536 C10 + 503 C11 + 371 C12 + 113 C13 + 772 C14
   + 118 C15 + 160 C16 + 597 C17 + 431 C18 + 36 C19 + 48 C20 + 357 C21
   + 706 C22 + 200 C23 + 162 C24 + 927 C25 + 632 C26 + 103 C27 + 410 C28
   + 179 C29 + 643 C30 + 521 C31 + 932 C32 >= 7708
 R57: 413 C0 + 50 C1 + 216 C2 + 536 C3 + 435 C4 + 71 C5 + 360 C6 + 413 C7
   + 47 C8 + 376 C9 + 906 C10 + 213 C11 + 289 C12 + 293 C13 + 359 C14
   + 455 C15 + 817 C16 + 597 C17 + 405 C18 + 728 C19 + 760 C20 + 498 C21
   + 515 C22 + 308 C23 + 635 C24 + 121 C25 + 39 C26 + 968 C27 + 278 C28
   + 249 C29 + 178 C30 + 182 C31 + 608 C32 >= 6828
 R58: 164 C0 + 500 C1 + 348 C2 + 240 C3 + 927 C4 + 599 C5 + 227 C6 + 493 C7
   + 322 C8 + 544 C9 + 745 C10 + 700 C11 + 58 C12 + 464 C13 + 627 C14
   + 888 C15 + 79 C16 + 793 C17 + 264 C18 + 338 C19 + 823 C20 + 412 C21
   + 803 C22 + 426 C23 + 662 C24 + 67 C25 + 668 C26 + 250 C27 + 996 C28
   + 202 C29 + 850 C30 + 861 C31 + 232 C32 >= 7571
 R59: 314 C0 + 661 C1 + 337 C2 + 635 C3 + 284 C4 + 420 C5 + 25 C6 + 607 C7
   + 155 C8 + 734 C9 + 748 C10 + 745 C11 + 489 C12 + 946 C13 + 157 C14
   + 606 C15 + 494 C16 + 959 C17 + 483 C18 + 559 C19 + 557 C20 + 16 C21
   + 986 C22 + 632 C23 + 515 C24 + 926 C25 + 228 C26 + 86 C27 + 586 C28
   + 157 C29 + 612 C30 + 471 C31 + 412 C32 >= 7947
Bounds
Binaries
 C0 C1 C2 C3 C4 C5 C6 C7 C8 C9 C10 C11 C12 C13 C14 C15 C16 C17 C18 C19 C20
 C21 C22 C23 C24 C25 C26 C27 C28 C29 C30 C31 C32
End
